*Heading
** Job name: 1_MR_tension Model name: Tension_MR
** Generated by: Abaqus/CAE 2025
*Preprint, echo=NO, model=NO, history=NO, contact=NO
**
** PARTS
**
*Part, name=dogbone_sample_3D
*Node
      1,  -43.1826057,           7.,   36.9848824
      2,  -43.1826057,           5.,   36.9848824
      3,  -39.0159378,           7.,   36.9848824
      4,  -39.0159378,           5.,   36.9848824
      5,  -34.8492737,           7.,   36.9848824
      6,  -34.8492737,           5.,   36.9848824
      7,  -30.6826057,           7.,   36.9848824
      8,  -30.6826057,           5.,   36.9848824
      9,  -26.5159397,           7.,   36.9848824
     10,  -26.5159397,           5.,   36.9848824
     11,  -22.3492718,           7.,   36.9848824
     12,  -22.3492718,           5.,   36.9848824
     13,  -18.1826057,           7.,   36.9848824
     14,  -18.1826057,           5.,   36.9848824
     15,  -43.1826057,           7.,   34.4032135
     16,  -43.1826057,           5.,   34.4032135
     17,  -39.0159378,           7.,   34.4032135
     18,  -39.0159378,           5.,   34.4032135
     19,  -34.8492737,           7.,   34.4032135
     20,  -34.8492737,           5.,   34.4032135
     21,  -30.6826057,           7.,   34.4032135
     22,  -30.6826057,           5.,   34.4032135
     23,  -26.5159397,           7.,   34.4032135
     24,  -26.5159397,           5.,   34.4032135
     25,  -22.3492718,           7.,   34.4032135
     26,  -22.3492718,           5.,   34.4032135
     27,  -18.1826057,           7.,   34.4032135
     28,  -18.1826057,           5.,   34.4032135
     29,  -43.1826057,           7.,   31.8215485
     30,  -43.1826057,           5.,   31.8215485
     31,  -39.0159378,           7.,   31.8215485
     32,  -39.0159378,           5.,   31.8215485
     33,  -34.8492737,           7.,   31.8215485
     34,  -34.8492737,           5.,   31.8215485
     35,  -30.6826057,           7.,   31.8215485
     36,  -30.6826057,           5.,   31.8215485
     37,  -26.5159397,           7.,   31.8215485
     38,  -26.5159397,           5.,   31.8215485
     39,  -22.3492718,           7.,   31.8215485
     40,  -22.3492718,           5.,   31.8215485
     41,  -18.1826057,           7.,   31.8215485
     42,  -18.1826057,           5.,   31.8215485
     43,  -43.1826057,           7.,   29.2398815
     44,  -43.1826057,           5.,   29.2398815
     45,  -39.0159378,           7.,   29.2398815
     46,  -39.0159378,           5.,   29.2398815
     47,  -34.8492737,           7.,   29.2398815
     48,  -34.8492737,           5.,   29.2398815
     49,  -30.6826057,           7.,   29.2398815
     50,  -30.6826057,           5.,   29.2398815
     51,  -26.5159397,           7.,   29.2398815
     52,  -26.5159397,           5.,   29.2398815
     53,  -22.3492718,           7.,   29.2398815
     54,  -22.3492718,           5.,   29.2398815
     55,  -18.1826057,           7.,   29.2398815
     56,  -18.1826057,           5.,   29.2398815
     57,  -43.1826057,           7.,   26.6582146
     58,  -43.1826057,           5.,   26.6582146
     59,  -39.0159378,           7.,   26.6582146
     60,  -39.0159378,           5.,   26.6582146
     61,  -34.8492737,           7.,   26.6582146
     62,  -34.8492737,           5.,   26.6582146
     63,  -30.6826057,           7.,   26.6582146
     64,  -30.6826057,           5.,   26.6582146
     65,  -26.5159397,           7.,   26.6582146
     66,  -26.5159397,           5.,   26.6582146
     67,  -22.3492718,           7.,   26.6582146
     68,  -22.3492718,           5.,   26.6582146
     69,  -18.1826057,           7.,   26.6582146
     70,  -18.1826057,           5.,   26.6582146
     71,  -43.1826057,           7.,   24.0765476
     72,  -43.1826057,           5.,   24.0765476
     73,  -39.0159378,           7.,   24.0765476
     74,  -39.0159378,           5.,   24.0765476
     75,  -34.8492737,           7.,   24.0765476
     76,  -34.8492737,           5.,   24.0765476
     77,  -30.6826057,           7.,   24.0765476
     78,  -30.6826057,           5.,   24.0765476
     79,  -26.5159397,           7.,   24.0765476
     80,  -26.5159397,           5.,   24.0765476
     81,  -22.3492718,           7.,   24.0765476
     82,  -22.3492718,           5.,   24.0765476
     83,  -18.1826057,           7.,   24.0765476
     84,  -18.1826057,           5.,   24.0765476
     85,  -43.1826057,           7.,   21.4948807
     86,  -43.1826057,           5.,   21.4948807
     87,  -39.0159378,           7.,   21.4948807
     88,  -39.0159378,           5.,   21.4948807
     89,  -34.8492737,           7.,   21.4948807
     90,  -34.8492737,           5.,   21.4948807
     91,  -30.6826057,           7.,   21.4948807
     92,  -30.6826057,           5.,   21.4948807
     93,  -26.5159397,           7.,   21.4948807
     94,  -26.5159397,           5.,   21.4948807
     95,  -22.3492718,           7.,   21.4948807
     96,  -22.3492718,           5.,   21.4948807
     97,  -18.1826057,           7.,   21.4948807
     98,  -18.1826057,           5.,   21.4948807
     99,  -43.0530357,           7.,   18.9528942
    100,  -43.0530357,           5.,   18.9528942
    101,  -38.9295578,           7.,   18.9528942
    102,  -38.9295578,           5.,   18.9528942
    103,  -34.8060837,           7.,   18.9528942
    104,  -34.8060837,           5.,   18.9528942
    105,  -30.6826057,           7.,   18.9528942
    106,  -30.6826057,           5.,   18.9528942
    107,  -26.5591297,           7.,   18.9528942
    108,  -26.5591297,           5.,   18.9528942
    109,  -22.4356518,           7.,   18.9528942
    110,  -22.4356518,           5.,   18.9528942
    111,  -18.3121758,           7.,   18.9528942
    112,  -18.3121758,           5.,   18.9528942
    113,  -42.6656685,           7.,    16.437254
    114,  -42.6656685,           5.,    16.437254
    115,  -38.6713142,           7.,    16.437254
    116,  -38.6713142,           5.,    16.437254
    117,    -34.67696,           7.,    16.437254
    118,    -34.67696,           5.,    16.437254
    119,  -30.6826057,           7.,    16.437254
    120,  -30.6826057,           5.,    16.437254
    121,  -26.6882515,           7.,    16.437254
    122,  -26.6882515,           5.,    16.437254
    123,  -22.6938972,           7.,    16.437254
    124,  -22.6938972,           5.,    16.437254
    125,   -18.699543,           7.,    16.437254
    126,   -18.699543,           5.,    16.437254
    127,  -42.0245209,           7.,    13.974041
    128,  -42.0245209,           5.,    13.974041
    129,   -38.243885,           7.,    13.974041
    130,   -38.243885,           5.,    13.974041
    131,  -34.4632454,           7.,    13.974041
    132,  -34.4632454,           5.,    13.974041
    133,  -30.6826057,           7.,    13.974041
    134,  -30.6826057,           5.,    13.974041
    135,   -26.901968,           7.,    13.974041
    136,   -26.901968,           5.,    13.974041
    137,  -23.1213284,           7.,    13.974041
    138,  -23.1213284,           5.,    13.974041
    139,  -19.3406906,           7.,    13.974041
    140,  -19.3406906,           5.,    13.974041
    141,  -41.1362381,           7.,   11.5887852
    142,  -41.1362381,           5.,   11.5887852
    143,  -37.6516953,           7.,   11.5887852
    144,  -37.6516953,           5.,   11.5887852
    145,  -34.1671486,           7.,   11.5887852
    146,  -34.1671486,           5.,   11.5887852
    147,  -30.6826057,           7.,   11.5887852
    148,  -30.6826057,           5.,   11.5887852
    149,   -27.198061,           7.,   11.5887852
    150,   -27.198061,           5.,   11.5887852
    151,  -23.7135181,           7.,   11.5887852
    152,  -23.7135181,           5.,   11.5887852
    153,  -20.2289734,           7.,   11.5887852
    154,  -20.2289734,           5.,   11.5887852
    155,  -40.0100288,           7.,   9.30621243
    156,  -40.0100288,           5.,   9.30621243
    157,  -36.9008865,           7.,   9.30621243
    158,  -36.9008865,           5.,   9.30621243
    159,   -33.791748,           7.,   9.30621243
    160,   -33.791748,           5.,   9.30621243
    161,  -30.6826057,           7.,   9.30621243
    162,  -30.6826057,           5.,   9.30621243
    163,  -27.5734653,           7.,   9.30621243
    164,  -27.5734653,           5.,   9.30621243
    165,   -24.464325,           7.,   9.30621243
    166,   -24.464325,           5.,   9.30621243
    167,  -21.3551846,           7.,   9.30621243
    168,  -21.3551846,           5.,   9.30621243
    169,  -38.6575623,           7.,    7.1499815
    170,  -38.6575623,           5.,    7.1499815
    171,  -35.9992447,           7.,    7.1499815
    172,  -35.9992447,           5.,    7.1499815
    173,  -33.3409233,           7.,    7.1499815
    174,  -33.3409233,           5.,    7.1499815
    175,  -30.6826057,           7.,    7.1499815
    176,  -30.6826057,           5.,    7.1499815
    177,  -28.0242863,           7.,    7.1499815
    178,  -28.0242863,           5.,    7.1499815
    179,  -25.3659687,           7.,    7.1499815
    180,  -25.3659687,           5.,    7.1499815
    181,  -22.7076492,           7.,    7.1499815
    182,  -22.7076492,           5.,    7.1499815
    183,  -37.0928612,           7.,   5.14244413
    184,  -37.0928612,           5.,   5.14244413
    185,  -34.9561119,           7.,   5.14244413
    186,  -34.9561119,           5.,   5.14244413
    187,  -32.8193588,           7.,   5.14244413
    188,  -32.8193588,           5.,   5.14244413
    189,  -30.6826057,           7.,   5.14244413
    190,  -30.6826057,           5.,   5.14244413
    191,  -28.5458546,           7.,   5.14244413
    192,  -28.5458546,           5.,   5.14244413
    193,  -26.4091015,           7.,   5.14244413
    194,  -26.4091015,           5.,   5.14244413
    195,  -24.2723503,           7.,   5.14244413
    196,  -24.2723503,           5.,   5.14244413
    197,   -35.637001,           7.,   3.11974216
    198,   -35.637001,           5.,   3.11974216
    199,  -33.9855347,           7.,   3.11974216
    200,  -33.9855347,           5.,   3.11974216
    201,  -32.3340721,           7.,   3.11974216
    202,  -32.3340721,           5.,   3.11974216
    203,  -30.6826057,           7.,   3.11974216
    204,  -30.6826057,           5.,   3.11974216
    205,  -29.0311413,           7.,   3.11974216
    206,  -29.0311413,           5.,   3.11974216
    207,  -27.3796749,           7.,   3.11974216
    208,  -27.3796749,           5.,   3.11974216
    209,  -25.7282104,           7.,   3.11974216
    210,  -25.7282104,           5.,   3.11974216
    211,  -34.5628433,           7.,   0.87095654
    212,  -34.5628433,           5.,   0.87095654
    213,  -33.2694283,           7.,   0.87095654
    214,  -33.2694283,           5.,   0.87095654
    215,  -31.9760189,           7.,   0.87095654
    216,  -31.9760189,           5.,   0.87095654
    217,  -30.6826057,           7.,   0.87095654
    218,  -30.6826057,           5.,   0.87095654
    219,  -29.3891945,           7.,   0.87095654
    220,  -29.3891945,           5.,   0.87095654
    221,  -28.0957813,           7.,   0.87095654
    222,  -28.0957813,           5.,   0.87095654
    223,  -26.8023701,           7.,   0.87095654
    224,  -26.8023701,           5.,   0.87095654
    225,  -33.9044228,           7.,  -1.53265285
    226,  -33.9044228,           5.,  -1.53265285
    227,  -32.8304825,           7.,  -1.53265285
    228,  -32.8304825,           5.,  -1.53265285
    229,  -31.7565441,           7.,  -1.53265285
    230,  -31.7565441,           5.,  -1.53265285
    231,  -30.6826057,           7.,  -1.53265285
    232,  -30.6826057,           5.,  -1.53265285
    233,  -29.6086674,           7.,  -1.53265285
    234,  -29.6086674,           5.,  -1.53265285
    235,   -28.534729,           7.,  -1.53265285
    236,   -28.534729,           5.,  -1.53265285
    237,  -27.4607906,           7.,  -1.53265285
    238,  -27.4607906,           5.,  -1.53265285
    239,  -33.6826057,           7.,  -4.01492071
    240,  -33.6826057,           5.,  -4.01492071
    241,  -32.6826057,           7.,  -4.01492071
    242,  -32.6826057,           5.,  -4.01492071
    243,  -31.6826057,           7.,  -4.01492071
    244,  -31.6826057,           5.,  -4.01492071
    245,  -30.6826057,           7.,  -4.01492071
    246,  -30.6826057,           5.,  -4.01492071
    247,  -29.6826057,           7.,  -4.01492071
    248,  -29.6826057,           5.,  -4.01492071
    249,  -28.6826057,           7.,  -4.01492071
    250,  -28.6826057,           5.,  -4.01492071
    251,  -27.6826057,           7.,  -4.01492071
    252,  -27.6826057,           5.,  -4.01492071
    253,  -33.6826057,           7.,  -6.26496983
    254,  -33.6826057,           5.,  -6.26496983
    255,  -32.6826057,           7.,  -6.26496983
    256,  -32.6826057,           5.,  -6.26496983
    257,  -31.6826057,           7.,  -6.26496983
    258,  -31.6826057,           5.,  -6.26496983
    259,  -30.6826057,           7.,  -6.26496983
    260,  -30.6826057,           5.,  -6.26496983
    261,  -29.6826057,           7.,  -6.26496983
    262,  -29.6826057,           5.,  -6.26496983
    263,  -28.6826057,           7.,  -6.26496983
    264,  -28.6826057,           5.,  -6.26496983
    265,  -27.6826057,           7.,  -6.26496983
    266,  -27.6826057,           5.,  -6.26496983
    267,  -33.6826057,           7.,  -8.51501942
    268,  -33.6826057,           5.,  -8.51501942
    269,  -32.6826057,           7.,  -8.51501942
    270,  -32.6826057,           5.,  -8.51501942
    271,  -31.6826057,           7.,  -8.51501942
    272,  -31.6826057,           5.,  -8.51501942
    273,  -30.6826057,           7.,  -8.51501942
    274,  -30.6826057,           5.,  -8.51501942
    275,  -29.6826057,           7.,  -8.51501942
    276,  -29.6826057,           5.,  -8.51501942
    277,  -28.6826057,           7.,  -8.51501942
    278,  -28.6826057,           5.,  -8.51501942
    279,  -27.6826057,           7.,  -8.51501942
    280,  -27.6826057,           5.,  -8.51501942
    281,  -33.6826057,           7.,   -10.765069
    282,  -33.6826057,           5.,   -10.765069
    283,  -32.6826057,           7.,   -10.765069
    284,  -32.6826057,           5.,   -10.765069
    285,  -31.6826057,           7.,   -10.765069
    286,  -31.6826057,           5.,   -10.765069
    287,  -30.6826057,           7.,   -10.765069
    288,  -30.6826057,           5.,   -10.765069
    289,  -29.6826057,           7.,   -10.765069
    290,  -29.6826057,           5.,   -10.765069
    291,  -28.6826057,           7.,   -10.765069
    292,  -28.6826057,           5.,   -10.765069
    293,  -27.6826057,           7.,   -10.765069
    294,  -27.6826057,           5.,   -10.765069
    295,  -33.6826057,           7.,  -13.0151186
    296,  -33.6826057,           5.,  -13.0151186
    297,  -32.6826057,           7.,  -13.0151186
    298,  -32.6826057,           5.,  -13.0151186
    299,  -31.6826057,           7.,  -13.0151186
    300,  -31.6826057,           5.,  -13.0151186
    301,  -30.6826057,           7.,  -13.0151186
    302,  -30.6826057,           5.,  -13.0151186
    303,  -29.6826057,           7.,  -13.0151186
    304,  -29.6826057,           5.,  -13.0151186
    305,  -28.6826057,           7.,  -13.0151186
    306,  -28.6826057,           5.,  -13.0151186
    307,  -27.6826057,           7.,  -13.0151186
    308,  -27.6826057,           5.,  -13.0151186
    309,  -33.6826057,           7.,  -15.5151186
    310,  -33.6826057,           5.,  -15.5151186
    311,  -32.6826057,           7.,  -15.5151186
    312,  -32.6826057,           5.,  -15.5151186
    313,  -31.6826057,           7.,  -15.5151186
    314,  -31.6826057,           5.,  -15.5151186
    315,  -30.6826057,           7.,  -15.5151186
    316,  -30.6826057,           5.,  -15.5151186
    317,  -29.6826057,           7.,  -15.5151186
    318,  -29.6826057,           5.,  -15.5151186
    319,  -28.6826057,           7.,  -15.5151186
    320,  -28.6826057,           5.,  -15.5151186
    321,  -27.6826057,           7.,  -15.5151186
    322,  -27.6826057,           5.,  -15.5151186
    323,  -33.6826057,           7.,  -18.0151176
    324,  -33.6826057,           5.,  -18.0151176
    325,  -32.6826057,           7.,  -18.0151176
    326,  -32.6826057,           5.,  -18.0151176
    327,  -31.6826057,           7.,  -18.0151176
    328,  -31.6826057,           5.,  -18.0151176
    329,  -30.6826057,           7.,  -18.0151176
    330,  -30.6826057,           5.,  -18.0151176
    331,  -29.6826057,           7.,  -18.0151176
    332,  -29.6826057,           5.,  -18.0151176
    333,  -28.6826057,           7.,  -18.0151176
    334,  -28.6826057,           5.,  -18.0151176
    335,  -27.6826057,           7.,  -18.0151176
    336,  -27.6826057,           5.,  -18.0151176
    337,  -33.6826057,           7.,  -20.5151176
    338,  -33.6826057,           5.,  -20.5151176
    339,  -32.6826057,           7.,  -20.5151176
    340,  -32.6826057,           5.,  -20.5151176
    341,  -31.6826057,           7.,  -20.5151176
    342,  -31.6826057,           5.,  -20.5151176
    343,  -30.6826057,           7.,  -20.5151176
    344,  -30.6826057,           5.,  -20.5151176
    345,  -29.6826057,           7.,  -20.5151176
    346,  -29.6826057,           5.,  -20.5151176
    347,  -28.6826057,           7.,  -20.5151176
    348,  -28.6826057,           5.,  -20.5151176
    349,  -27.6826057,           7.,  -20.5151176
    350,  -27.6826057,           5.,  -20.5151176
    351,  -33.6826057,           7.,  -23.0151176
    352,  -33.6826057,           5.,  -23.0151176
    353,  -32.6826057,           7.,  -23.0151176
    354,  -32.6826057,           5.,  -23.0151176
    355,  -31.6826057,           7.,  -23.0151176
    356,  -31.6826057,           5.,  -23.0151176
    357,  -30.6826057,           7.,  -23.0151176
    358,  -30.6826057,           5.,  -23.0151176
    359,  -29.6826057,           7.,  -23.0151176
    360,  -29.6826057,           5.,  -23.0151176
    361,  -28.6826057,           7.,  -23.0151176
    362,  -28.6826057,           5.,  -23.0151176
    363,  -27.6826057,           7.,  -23.0151176
    364,  -27.6826057,           5.,  -23.0151176
    365,  -33.6826057,           7.,  -25.5151176
    366,  -33.6826057,           5.,  -25.5151176
    367,  -32.6826057,           7.,  -25.5151176
    368,  -32.6826057,           5.,  -25.5151176
    369,  -31.6826057,           7.,  -25.5151176
    370,  -31.6826057,           5.,  -25.5151176
    371,  -30.6826057,           7.,  -25.5151176
    372,  -30.6826057,           5.,  -25.5151176
    373,  -29.6826057,           7.,  -25.5151176
    374,  -29.6826057,           5.,  -25.5151176
    375,  -28.6826057,           7.,  -25.5151176
    376,  -28.6826057,           5.,  -25.5151176
    377,  -27.6826057,           7.,  -25.5151176
    378,  -27.6826057,           5.,  -25.5151176
    379,  -33.6826057,           7.,  -28.0151176
    380,  -33.6826057,           5.,  -28.0151176
    381,  -32.6826057,           7.,  -28.0151176
    382,  -32.6826057,           5.,  -28.0151176
    383,  -31.6826057,           7.,  -28.0151176
    384,  -31.6826057,           5.,  -28.0151176
    385,  -30.6826057,           7.,  -28.0151176
    386,  -30.6826057,           5.,  -28.0151176
    387,  -29.6826057,           7.,  -28.0151176
    388,  -29.6826057,           5.,  -28.0151176
    389,  -28.6826057,           7.,  -28.0151176
    390,  -28.6826057,           5.,  -28.0151176
    391,  -27.6826057,           7.,  -28.0151176
    392,  -27.6826057,           5.,  -28.0151176
    393,  -33.6826057,           7.,  -30.2651672
    394,  -33.6826057,           5.,  -30.2651672
    395,  -32.6826057,           7.,  -30.2651672
    396,  -32.6826057,           5.,  -30.2651672
    397,  -31.6826057,           7.,  -30.2651672
    398,  -31.6826057,           5.,  -30.2651672
    399,  -30.6826057,           7.,  -30.2651672
    400,  -30.6826057,           5.,  -30.2651672
    401,  -29.6826057,           7.,  -30.2651672
    402,  -29.6826057,           5.,  -30.2651672
    403,  -28.6826057,           7.,  -30.2651672
    404,  -28.6826057,           5.,  -30.2651672
    405,  -27.6826057,           7.,  -30.2651672
    406,  -27.6826057,           5.,  -30.2651672
    407,  -33.6826057,           7.,  -32.5152168
    408,  -33.6826057,           5.,  -32.5152168
    409,  -32.6826057,           7.,  -32.5152168
    410,  -32.6826057,           5.,  -32.5152168
    411,  -31.6826057,           7.,  -32.5152168
    412,  -31.6826057,           5.,  -32.5152168
    413,  -30.6826057,           7.,  -32.5152168
    414,  -30.6826057,           5.,  -32.5152168
    415,  -29.6826057,           7.,  -32.5152168
    416,  -29.6826057,           5.,  -32.5152168
    417,  -28.6826057,           7.,  -32.5152168
    418,  -28.6826057,           5.,  -32.5152168
    419,  -27.6826057,           7.,  -32.5152168
    420,  -27.6826057,           5.,  -32.5152168
    421,  -33.6826057,           7.,  -34.7652664
    422,  -33.6826057,           5.,  -34.7652664
    423,  -32.6826057,           7.,  -34.7652664
    424,  -32.6826057,           5.,  -34.7652664
    425,  -31.6826057,           7.,  -34.7652664
    426,  -31.6826057,           5.,  -34.7652664
    427,  -30.6826057,           7.,  -34.7652664
    428,  -30.6826057,           5.,  -34.7652664
    429,  -29.6826057,           7.,  -34.7652664
    430,  -29.6826057,           5.,  -34.7652664
    431,  -28.6826057,           7.,  -34.7652664
    432,  -28.6826057,           5.,  -34.7652664
    433,  -27.6826057,           7.,  -34.7652664
    434,  -27.6826057,           5.,  -34.7652664
    435,  -33.6826057,           7.,   -37.015316
    436,  -33.6826057,           5.,   -37.015316
    437,  -32.6826057,           7.,   -37.015316
    438,  -32.6826057,           5.,   -37.015316
    439,  -31.6826057,           7.,   -37.015316
    440,  -31.6826057,           5.,   -37.015316
    441,  -30.6826057,           7.,   -37.015316
    442,  -30.6826057,           5.,   -37.015316
    443,  -29.6826057,           7.,   -37.015316
    444,  -29.6826057,           5.,   -37.015316
    445,  -28.6826057,           7.,   -37.015316
    446,  -28.6826057,           5.,   -37.015316
    447,  -27.6826057,           7.,   -37.015316
    448,  -27.6826057,           5.,   -37.015316
    449,  -33.9044228,           7.,  -39.4975853
    450,  -33.9044228,           5.,  -39.4975853
    451,  -32.8304825,           7.,  -39.4975853
    452,  -32.8304825,           5.,  -39.4975853
    453,  -31.7565441,           7.,  -39.4975853
    454,  -31.7565441,           5.,  -39.4975853
    455,  -30.6826057,           7.,  -39.4975853
    456,  -30.6826057,           5.,  -39.4975853
    457,  -29.6086674,           7.,  -39.4975853
    458,  -29.6086674,           5.,  -39.4975853
    459,   -28.534729,           7.,  -39.4975853
    460,   -28.534729,           5.,  -39.4975853
    461,  -27.4607906,           7.,  -39.4975853
    462,  -27.4607906,           5.,  -39.4975853
    463,  -34.5628433,           7.,  -41.9011917
    464,  -34.5628433,           5.,  -41.9011917
    465,  -33.2694283,           7.,  -41.9011917
    466,  -33.2694283,           5.,  -41.9011917
    467,  -31.9760189,           7.,  -41.9011917
    468,  -31.9760189,           5.,  -41.9011917
    469,  -30.6826057,           7.,  -41.9011917
    470,  -30.6826057,           5.,  -41.9011917
    471,  -29.3891945,           7.,  -41.9011917
    472,  -29.3891945,           5.,  -41.9011917
    473,  -28.0957813,           7.,  -41.9011917
    474,  -28.0957813,           5.,  -41.9011917
    475,  -26.8023701,           7.,  -41.9011917
    476,  -26.8023701,           5.,  -41.9011917
    477,   -35.637001,           7.,  -44.1499786
    478,   -35.637001,           5.,  -44.1499786
    479,  -33.9855347,           7.,  -44.1499786
    480,  -33.9855347,           5.,  -44.1499786
    481,  -32.3340721,           7.,  -44.1499786
    482,  -32.3340721,           5.,  -44.1499786
    483,  -30.6826057,           7.,  -44.1499786
    484,  -30.6826057,           5.,  -44.1499786
    485,  -29.0311413,           7.,  -44.1499786
    486,  -29.0311413,           5.,  -44.1499786
    487,  -27.3796749,           7.,  -44.1499786
    488,  -27.3796749,           5.,  -44.1499786
    489,  -25.7282104,           7.,  -44.1499786
    490,  -25.7282104,           5.,  -44.1499786
    491,  -37.0928612,           7.,  -46.1726799
    492,  -37.0928612,           5.,  -46.1726799
    493,  -34.9561119,           7.,  -46.1726799
    494,  -34.9561119,           5.,  -46.1726799
    495,  -32.8193588,           7.,  -46.1726799
    496,  -32.8193588,           5.,  -46.1726799
    497,  -30.6826057,           7.,  -46.1726799
    498,  -30.6826057,           5.,  -46.1726799
    499,  -28.5458546,           7.,  -46.1726799
    500,  -28.5458546,           5.,  -46.1726799
    501,  -26.4091015,           7.,  -46.1726799
    502,  -26.4091015,           5.,  -46.1726799
    503,  -24.2723503,           7.,  -46.1726799
    504,  -24.2723503,           5.,  -46.1726799
    505,  -38.6575623,           7.,  -48.1802177
    506,  -38.6575623,           5.,  -48.1802177
    507,  -35.9992447,           7.,  -48.1802177
    508,  -35.9992447,           5.,  -48.1802177
    509,  -33.3409233,           7.,  -48.1802177
    510,  -33.3409233,           5.,  -48.1802177
    511,  -30.6826057,           7.,  -48.1802177
    512,  -30.6826057,           5.,  -48.1802177
    513,  -28.0242863,           7.,  -48.1802177
    514,  -28.0242863,           5.,  -48.1802177
    515,  -25.3659687,           7.,  -48.1802177
    516,  -25.3659687,           5.,  -48.1802177
    517,  -22.7076492,           7.,  -48.1802177
    518,  -22.7076492,           5.,  -48.1802177
    519,  -40.0100288,           7.,  -50.3364487
    520,  -40.0100288,           5.,  -50.3364487
    521,  -36.9008865,           7.,  -50.3364487
    522,  -36.9008865,           5.,  -50.3364487
    523,   -33.791748,           7.,  -50.3364487
    524,   -33.791748,           5.,  -50.3364487
    525,  -30.6826057,           7.,  -50.3364487
    526,  -30.6826057,           5.,  -50.3364487
    527,  -27.5734653,           7.,  -50.3364487
    528,  -27.5734653,           5.,  -50.3364487
    529,   -24.464325,           7.,  -50.3364487
    530,   -24.464325,           5.,  -50.3364487
    531,  -21.3551846,           7.,  -50.3364487
    532,  -21.3551846,           5.,  -50.3364487
    533,  -41.1362381,           7.,  -52.6190224
    534,  -41.1362381,           5.,  -52.6190224
    535,  -37.6516953,           7.,  -52.6190224
    536,  -37.6516953,           5.,  -52.6190224
    537,  -34.1671486,           7.,  -52.6190224
    538,  -34.1671486,           5.,  -52.6190224
    539,  -30.6826057,           7.,  -52.6190224
    540,  -30.6826057,           5.,  -52.6190224
    541,   -27.198061,           7.,  -52.6190224
    542,   -27.198061,           5.,  -52.6190224
    543,  -23.7135181,           7.,  -52.6190224
    544,  -23.7135181,           5.,  -52.6190224
    545,  -20.2289734,           7.,  -52.6190224
    546,  -20.2289734,           5.,  -52.6190224
    547,  -42.0245209,           7.,  -55.0042763
    548,  -42.0245209,           5.,  -55.0042763
    549,   -38.243885,           7.,  -55.0042763
    550,   -38.243885,           5.,  -55.0042763
    551,  -34.4632454,           7.,  -55.0042763
    552,  -34.4632454,           5.,  -55.0042763
    553,  -30.6826057,           7.,  -55.0042763
    554,  -30.6826057,           5.,  -55.0042763
    555,   -26.901968,           7.,  -55.0042763
    556,   -26.901968,           5.,  -55.0042763
    557,  -23.1213284,           7.,  -55.0042763
    558,  -23.1213284,           5.,  -55.0042763
    559,  -19.3406906,           7.,  -55.0042763
    560,  -19.3406906,           5.,  -55.0042763
    561,  -42.6656685,           7.,  -57.4674911
    562,  -42.6656685,           5.,  -57.4674911
    563,  -38.6713142,           7.,  -57.4674911
    564,  -38.6713142,           5.,  -57.4674911
    565,    -34.67696,           7.,  -57.4674911
    566,    -34.67696,           5.,  -57.4674911
    567,  -30.6826057,           7.,  -57.4674911
    568,  -30.6826057,           5.,  -57.4674911
    569,  -26.6882515,           7.,  -57.4674911
    570,  -26.6882515,           5.,  -57.4674911
    571,  -22.6938972,           7.,  -57.4674911
    572,  -22.6938972,           5.,  -57.4674911
    573,   -18.699543,           7.,  -57.4674911
    574,   -18.699543,           5.,  -57.4674911
    575,  -43.0530357,           7.,  -59.9831314
    576,  -43.0530357,           5.,  -59.9831314
    577,  -38.9295578,           7.,  -59.9831314
    578,  -38.9295578,           5.,  -59.9831314
    579,  -34.8060837,           7.,  -59.9831314
    580,  -34.8060837,           5.,  -59.9831314
    581,  -30.6826057,           7.,  -59.9831314
    582,  -30.6826057,           5.,  -59.9831314
    583,  -26.5591297,           7.,  -59.9831314
    584,  -26.5591297,           5.,  -59.9831314
    585,  -22.4356518,           7.,  -59.9831314
    586,  -22.4356518,           5.,  -59.9831314
    587,  -18.3121758,           7.,  -59.9831314
    588,  -18.3121758,           5.,  -59.9831314
    589,  -43.1826057,           7.,  -62.5251198
    590,  -43.1826057,           5.,  -62.5251198
    591,  -39.0159378,           7.,  -62.5251198
    592,  -39.0159378,           5.,  -62.5251198
    593,  -34.8492737,           7.,  -62.5251198
    594,  -34.8492737,           5.,  -62.5251198
    595,  -30.6826057,           7.,  -62.5251198
    596,  -30.6826057,           5.,  -62.5251198
    597,  -26.5159397,           7.,  -62.5251198
    598,  -26.5159397,           5.,  -62.5251198
    599,  -22.3492718,           7.,  -62.5251198
    600,  -22.3492718,           5.,  -62.5251198
    601,  -18.1826057,           7.,  -62.5251198
    602,  -18.1826057,           5.,  -62.5251198
    603,  -43.1826057,           7.,  -65.1067886
    604,  -43.1826057,           5.,  -65.1067886
    605,  -39.0159378,           7.,  -65.1067886
    606,  -39.0159378,           5.,  -65.1067886
    607,  -34.8492737,           7.,  -65.1067886
    608,  -34.8492737,           5.,  -65.1067886
    609,  -30.6826057,           7.,  -65.1067886
    610,  -30.6826057,           5.,  -65.1067886
    611,  -26.5159397,           7.,  -65.1067886
    612,  -26.5159397,           5.,  -65.1067886
    613,  -22.3492718,           7.,  -65.1067886
    614,  -22.3492718,           5.,  -65.1067886
    615,  -18.1826057,           7.,  -65.1067886
    616,  -18.1826057,           5.,  -65.1067886
    617,  -43.1826057,           7.,  -67.6884537
    618,  -43.1826057,           5.,  -67.6884537
    619,  -39.0159378,           7.,  -67.6884537
    620,  -39.0159378,           5.,  -67.6884537
    621,  -34.8492737,           7.,  -67.6884537
    622,  -34.8492737,           5.,  -67.6884537
    623,  -30.6826057,           7.,  -67.6884537
    624,  -30.6826057,           5.,  -67.6884537
    625,  -26.5159397,           7.,  -67.6884537
    626,  -26.5159397,           5.,  -67.6884537
    627,  -22.3492718,           7.,  -67.6884537
    628,  -22.3492718,           5.,  -67.6884537
    629,  -18.1826057,           7.,  -67.6884537
    630,  -18.1826057,           5.,  -67.6884537
    631,  -43.1826057,           7.,  -70.2701187
    632,  -43.1826057,           5.,  -70.2701187
    633,  -39.0159378,           7.,  -70.2701187
    634,  -39.0159378,           5.,  -70.2701187
    635,  -34.8492737,           7.,  -70.2701187
    636,  -34.8492737,           5.,  -70.2701187
    637,  -30.6826057,           7.,  -70.2701187
    638,  -30.6826057,           5.,  -70.2701187
    639,  -26.5159397,           7.,  -70.2701187
    640,  -26.5159397,           5.,  -70.2701187
    641,  -22.3492718,           7.,  -70.2701187
    642,  -22.3492718,           5.,  -70.2701187
    643,  -18.1826057,           7.,  -70.2701187
    644,  -18.1826057,           5.,  -70.2701187
    645,  -43.1826057,           7.,  -72.8517838
    646,  -43.1826057,           5.,  -72.8517838
    647,  -39.0159378,           7.,  -72.8517838
    648,  -39.0159378,           5.,  -72.8517838
    649,  -34.8492737,           7.,  -72.8517838
    650,  -34.8492737,           5.,  -72.8517838
    651,  -30.6826057,           7.,  -72.8517838
    652,  -30.6826057,           5.,  -72.8517838
    653,  -26.5159397,           7.,  -72.8517838
    654,  -26.5159397,           5.,  -72.8517838
    655,  -22.3492718,           7.,  -72.8517838
    656,  -22.3492718,           5.,  -72.8517838
    657,  -18.1826057,           7.,  -72.8517838
    658,  -18.1826057,           5.,  -72.8517838
    659,  -43.1826057,           7.,  -75.4334488
    660,  -43.1826057,           5.,  -75.4334488
    661,  -39.0159378,           7.,  -75.4334488
    662,  -39.0159378,           5.,  -75.4334488
    663,  -34.8492737,           7.,  -75.4334488
    664,  -34.8492737,           5.,  -75.4334488
    665,  -30.6826057,           7.,  -75.4334488
    666,  -30.6826057,           5.,  -75.4334488
    667,  -26.5159397,           7.,  -75.4334488
    668,  -26.5159397,           5.,  -75.4334488
    669,  -22.3492718,           7.,  -75.4334488
    670,  -22.3492718,           5.,  -75.4334488
    671,  -18.1826057,           7.,  -75.4334488
    672,  -18.1826057,           5.,  -75.4334488
    673,  -43.1826057,           7.,  -78.0151215
    674,  -43.1826057,           5.,  -78.0151215
    675,  -39.0159378,           7.,  -78.0151215
    676,  -39.0159378,           5.,  -78.0151215
    677,  -34.8492737,           7.,  -78.0151215
    678,  -34.8492737,           5.,  -78.0151215
    679,  -30.6826057,           7.,  -78.0151215
    680,  -30.6826057,           5.,  -78.0151215
    681,  -26.5159397,           7.,  -78.0151215
    682,  -26.5159397,           5.,  -78.0151215
    683,  -22.3492718,           7.,  -78.0151215
    684,  -22.3492718,           5.,  -78.0151215
    685,  -18.1826057,           7.,  -78.0151215
    686,  -18.1826057,           5.,  -78.0151215
    687,  -41.0992737,           7.,   34.4032135
    688,  -39.0159378,           6.,   34.4032135
    689,  -41.0992737,           5.,   34.4032135
    690,  -43.1826057,           6.,   34.4032135
    691,  -43.1826057,           6.,   36.9848824
    692,  -41.0992737,           5.,   36.9848824
    693,  -39.0159378,           6.,   36.9848824
    694,  -41.0992737,           7.,   36.9848824
    695,  -43.1826057,           5.,    35.694046
    696,  -43.1826057,           7.,    35.694046
    697,  -39.0159378,           5.,    35.694046
    698,  -39.0159378,           7.,    35.694046
    699,  -36.9326057,           7.,   34.4032135
    700,  -34.8492737,           6.,   34.4032135
    701,  -36.9326057,           5.,   34.4032135
    702,  -36.9326057,           5.,   36.9848824
    703,  -34.8492737,           6.,   36.9848824
    704,  -36.9326057,           7.,   36.9848824
    705,  -34.8492737,           5.,    35.694046
    706,  -34.8492737,           7.,    35.694046
    707,  -32.7659378,           7.,   34.4032135
    708,  -30.6826057,           6.,   34.4032135
    709,  -32.7659378,           5.,   34.4032135
    710,  -32.7659378,           5.,   36.9848824
    711,  -30.6826057,           6.,   36.9848824
    712,  -32.7659378,           7.,   36.9848824
    713,  -30.6826057,           5.,    35.694046
    714,  -30.6826057,           7.,    35.694046
    715,  -28.5992737,           7.,   34.4032135
    716,  -26.5159397,           6.,   34.4032135
    717,  -28.5992737,           5.,   34.4032135
    718,  -28.5992737,           5.,   36.9848824
    719,  -26.5159397,           6.,   36.9848824
    720,  -28.5992737,           7.,   36.9848824
    721,  -26.5159397,           5.,    35.694046
    722,  -26.5159397,           7.,    35.694046
    723,  -24.4326057,           7.,   34.4032135
    724,  -22.3492718,           6.,   34.4032135
    725,  -24.4326057,           5.,   34.4032135
    726,  -24.4326057,           5.,   36.9848824
    727,  -22.3492718,           6.,   36.9848824
    728,  -24.4326057,           7.,   36.9848824
    729,  -22.3492718,           5.,    35.694046
    730,  -22.3492718,           7.,    35.694046
    731,  -20.2659378,           7.,   34.4032135
    732,  -18.1826057,           6.,   34.4032135
    733,  -20.2659378,           5.,   34.4032135
    734,  -20.2659397,           5.,   36.9848824
    735,  -18.1826057,           6.,   36.9848824
    736,  -20.2659397,           7.,   36.9848824
    737,  -18.1826057,           5.,    35.694046
    738,  -18.1826057,           7.,    35.694046
    739,  -41.0992737,           7.,   31.8215485
    740,  -39.0159378,           6.,   31.8215485
    741,  -41.0992737,           5.,   31.8215485
    742,  -43.1826057,           6.,   31.8215485
    743,  -43.1826057,           5.,    33.112381
    744,  -43.1826057,           7.,    33.112381
    745,  -39.0159378,           5.,    33.112381
    746,  -39.0159378,           7.,    33.112381
    747,  -36.9326057,           7.,   31.8215485
    748,  -34.8492737,           6.,   31.8215485
    749,  -36.9326057,           5.,   31.8215485
    750,  -34.8492737,           5.,    33.112381
    751,  -34.8492737,           7.,    33.112381
    752,  -32.7659378,           7.,   31.8215485
    753,  -30.6826057,           6.,   31.8215485
    754,  -32.7659378,           5.,   31.8215485
    755,  -30.6826057,           5.,    33.112381
    756,  -30.6826057,           7.,    33.112381
    757,  -28.5992737,           7.,   31.8215485
    758,  -26.5159397,           6.,   31.8215485
    759,  -28.5992737,           5.,   31.8215485
    760,  -26.5159397,           5.,    33.112381
    761,  -26.5159397,           7.,    33.112381
    762,  -24.4326057,           7.,   31.8215485
    763,  -22.3492718,           6.,   31.8215485
    764,  -24.4326057,           5.,   31.8215485
    765,  -22.3492718,           5.,    33.112381
    766,  -22.3492718,           7.,    33.112381
    767,  -20.2659378,           7.,   31.8215485
    768,  -18.1826057,           6.,   31.8215485
    769,  -20.2659378,           5.,   31.8215485
    770,  -18.1826057,           5.,    33.112381
    771,  -18.1826057,           7.,    33.112381
    772,  -41.0992737,           7.,   29.2398815
    773,  -39.0159378,           6.,   29.2398815
    774,  -41.0992737,           5.,   29.2398815
    775,  -43.1826057,           6.,   29.2398815
    776,  -43.1826057,           5.,   30.5307159
    777,  -43.1826057,           7.,   30.5307159
    778,  -39.0159378,           5.,   30.5307159
    779,  -39.0159378,           7.,   30.5307159
    780,  -36.9326057,           7.,   29.2398815
    781,  -34.8492737,           6.,   29.2398815
    782,  -36.9326057,           5.,   29.2398815
    783,  -34.8492737,           5.,   30.5307159
    784,  -34.8492737,           7.,   30.5307159
    785,  -32.7659378,           7.,   29.2398815
    786,  -30.6826057,           6.,   29.2398815
    787,  -32.7659378,           5.,   29.2398815
    788,  -30.6826057,           5.,   30.5307159
    789,  -30.6826057,           7.,   30.5307159
    790,  -28.5992737,           7.,   29.2398815
    791,  -26.5159397,           6.,   29.2398815
    792,  -28.5992737,           5.,   29.2398815
    793,  -26.5159397,           5.,   30.5307159
    794,  -26.5159397,           7.,   30.5307159
    795,  -24.4326057,           7.,   29.2398815
    796,  -22.3492718,           6.,   29.2398815
    797,  -24.4326057,           5.,   29.2398815
    798,  -22.3492718,           5.,   30.5307159
    799,  -22.3492718,           7.,   30.5307159
    800,  -20.2659378,           7.,   29.2398815
    801,  -18.1826057,           6.,   29.2398815
    802,  -20.2659378,           5.,   29.2398815
    803,  -18.1826057,           5.,   30.5307159
    804,  -18.1826057,           7.,   30.5307159
    805,  -41.0992737,           7.,   26.6582146
    806,  -39.0159378,           6.,   26.6582146
    807,  -41.0992737,           5.,   26.6582146
    808,  -43.1826057,           6.,   26.6582146
    809,  -43.1826057,           5.,   27.9490471
    810,  -43.1826057,           7.,   27.9490471
    811,  -39.0159378,           5.,   27.9490471
    812,  -39.0159378,           7.,   27.9490471
    813,  -36.9326057,           7.,   26.6582146
    814,  -34.8492737,           6.,   26.6582146
    815,  -36.9326057,           5.,   26.6582146
    816,  -34.8492737,           5.,   27.9490471
    817,  -34.8492737,           7.,   27.9490471
    818,  -32.7659378,           7.,   26.6582146
    819,  -30.6826057,           6.,   26.6582146
    820,  -32.7659378,           5.,   26.6582146
    821,  -30.6826057,           5.,   27.9490471
    822,  -30.6826057,           7.,   27.9490471
    823,  -28.5992737,           7.,   26.6582146
    824,  -26.5159397,           6.,   26.6582146
    825,  -28.5992737,           5.,   26.6582146
    826,  -26.5159397,           5.,   27.9490471
    827,  -26.5159397,           7.,   27.9490471
    828,  -24.4326057,           7.,   26.6582146
    829,  -22.3492718,           6.,   26.6582146
    830,  -24.4326057,           5.,   26.6582146
    831,  -22.3492718,           5.,   27.9490471
    832,  -22.3492718,           7.,   27.9490471
    833,  -20.2659378,           7.,   26.6582146
    834,  -18.1826057,           6.,   26.6582146
    835,  -20.2659378,           5.,   26.6582146
    836,  -18.1826057,           5.,   27.9490471
    837,  -18.1826057,           7.,   27.9490471
    838,  -41.0992737,           7.,   24.0765476
    839,  -39.0159378,           6.,   24.0765476
    840,  -41.0992737,           5.,   24.0765476
    841,  -43.1826057,           6.,   24.0765476
    842,  -43.1826057,           5.,    25.367382
    843,  -43.1826057,           7.,    25.367382
    844,  -39.0159378,           5.,    25.367382
    845,  -39.0159378,           7.,    25.367382
    846,  -36.9326057,           7.,   24.0765476
    847,  -34.8492737,           6.,   24.0765476
    848,  -36.9326057,           5.,   24.0765476
    849,  -34.8492737,           5.,    25.367382
    850,  -34.8492737,           7.,    25.367382
    851,  -32.7659378,           7.,   24.0765476
    852,  -30.6826057,           6.,   24.0765476
    853,  -32.7659378,           5.,   24.0765476
    854,  -30.6826057,           5.,    25.367382
    855,  -30.6826057,           7.,    25.367382
    856,  -28.5992737,           7.,   24.0765476
    857,  -26.5159397,           6.,   24.0765476
    858,  -28.5992737,           5.,   24.0765476
    859,  -26.5159397,           5.,    25.367382
    860,  -26.5159397,           7.,    25.367382
    861,  -24.4326057,           7.,   24.0765476
    862,  -22.3492718,           6.,   24.0765476
    863,  -24.4326057,           5.,   24.0765476
    864,  -22.3492718,           5.,    25.367382
    865,  -22.3492718,           7.,    25.367382
    866,  -20.2659378,           7.,   24.0765476
    867,  -18.1826057,           6.,   24.0765476
    868,  -20.2659378,           5.,   24.0765476
    869,  -18.1826057,           5.,    25.367382
    870,  -18.1826057,           7.,    25.367382
    871,  -41.0992737,           7.,   21.4948807
    872,  -39.0159378,           6.,   21.4948807
    873,  -41.0992737,           5.,   21.4948807
    874,  -43.1826057,           6.,   21.4948807
    875,  -43.1826057,           5.,   22.7857151
    876,  -43.1826057,           7.,   22.7857151
    877,  -39.0159378,           5.,   22.7857132
    878,  -39.0159378,           7.,   22.7857132
    879,  -36.9326057,           7.,   21.4948807
    880,  -34.8492737,           6.,   21.4948807
    881,  -36.9326057,           5.,   21.4948807
    882,  -34.8492737,           5.,   22.7857132
    883,  -34.8492737,           7.,   22.7857132
    884,  -32.7659378,           7.,   21.4948807
    885,  -30.6826057,           6.,   21.4948807
    886,  -32.7659378,           5.,   21.4948807
    887,  -30.6826057,           5.,   22.7857132
    888,  -30.6826057,           7.,   22.7857132
    889,  -28.5992737,           7.,   21.4948807
    890,  -26.5159397,           6.,   21.4948807
    891,  -28.5992737,           5.,   21.4948807
    892,  -26.5159397,           5.,   22.7857132
    893,  -26.5159397,           7.,   22.7857132
    894,  -24.4326057,           7.,   21.4948807
    895,  -22.3492718,           6.,   21.4948807
    896,  -24.4326057,           5.,   21.4948807
    897,  -22.3492718,           5.,   22.7857132
    898,  -22.3492718,           7.,   22.7857132
    899,  -20.2659378,           7.,   21.4948807
    900,  -18.1826057,           6.,   21.4948807
    901,  -20.2659378,           5.,   21.4948807
    902,  -18.1826057,           5.,   22.7857151
    903,  -18.1826057,           7.,   22.7857151
    904,  -40.9912949,           7.,   18.9528942
    905,  -38.9295578,           6.,   18.9528942
    906,  -40.9912949,           5.,   18.9528942
    907,  -43.0530357,           6.,   18.9528942
    908,  -43.1501923,           5.,   20.2222385
    909,  -43.1501923,           7.,   20.2222385
    910,  -38.9727478,           5.,   20.2238884
    911,  -38.9727478,           7.,   20.2238884
    912,  -36.8678207,           7.,   18.9528942
    913,  -34.8060837,           6.,   18.9528942
    914,  -36.8678207,           5.,   18.9528942
    915,  -34.8276787,           5.,   20.2238884
    916,  -34.8276787,           7.,   20.2238884
    917,  -32.7443466,           7.,   18.9528942
    918,  -30.6826057,           6.,   18.9528942
    919,  -32.7443466,           5.,   18.9528942
    920,  -30.6826057,           5.,   20.2238884
    921,  -30.6826057,           7.,   20.2238884
    922,  -28.6208687,           7.,   18.9528942
    923,  -26.5591297,           6.,   18.9528942
    924,  -28.6208687,           5.,   18.9528942
    925,  -26.5375347,           5.,   20.2238884
    926,  -26.5375347,           7.,   20.2238884
    927,  -24.4973907,           7.,   18.9528942
    928,  -22.4356518,           6.,   18.9528942
    929,  -24.4973907,           5.,   18.9528942
    930,  -22.3924618,           5.,   20.2238884
    931,  -22.3924618,           7.,   20.2238884
    932,  -20.3739128,           7.,   18.9528942
    933,  -18.3121758,           6.,   18.9528942
    934,  -20.3739128,           5.,   18.9528942
    935,  -18.2150192,           5.,   20.2222385
    936,  -18.2150192,           7.,   20.2222385
    937,  -40.6684914,           7.,    16.437254
    938,  -38.6713142,           6.,    16.437254
    939,  -40.6684914,           5.,    16.437254
    940,  -42.6656685,           6.,    16.437254
    941,  -42.8913879,           5.,   17.6901417
    942,  -42.8913879,           7.,   17.6901417
    943,  -38.8004379,           5.,   17.6950741
    944,  -38.8004379,           7.,   17.6950741
    945,  -36.6741371,           7.,    16.437254
    946,    -34.67696,           6.,    16.437254
    947,  -36.6741371,           5.,    16.437254
    948,  -34.7415237,           5.,   17.6950741
    949,  -34.7415237,           7.,   17.6950741
    950,  -32.6797829,           7.,    16.437254
    951,  -30.6826057,           6.,    16.437254
    952,  -32.6797829,           5.,    16.437254
    953,  -30.6826057,           5.,   17.6950741
    954,  -30.6826057,           7.,   17.6950741
    955,  -28.6854286,           7.,    16.437254
    956,  -26.6882515,           6.,    16.437254
    957,  -28.6854286,           5.,    16.437254
    958,  -26.6236916,           5.,   17.6950741
    959,  -26.6236916,           7.,   17.6950741
    960,  -24.6910744,           7.,    16.437254
    961,  -22.6938972,           6.,    16.437254
    962,  -24.6910744,           5.,    16.437254
    963,  -22.5647736,           5.,   17.6950741
    964,  -22.5647736,           7.,   17.6950741
    965,  -20.6967201,           7.,    16.437254
    966,   -18.699543,           6.,    16.437254
    967,  -20.6967201,           5.,    16.437254
    968,  -18.4738235,           5.,   17.6901417
    969,  -18.4738235,           7.,   17.6901417
    970,   -40.134201,           7.,    13.974041
    971,   -38.243885,           6.,    13.974041
    972,   -40.134201,           5.,    13.974041
    973,  -42.0245209,           6.,    13.974041
    974,  -42.3764648,           5.,   15.1974821
    975,  -42.3764648,           7.,   15.1974821
    976,  -38.4575996,           5.,   15.2056475
    977,  -38.4575996,           7.,   15.2056475
    978,  -36.3535652,           7.,    13.974041
    979,  -34.4632454,           6.,    13.974041
    980,  -36.3535652,           5.,    13.974041
    981,  -34.5701027,           5.,   15.2056475
    982,  -34.5701027,           7.,   15.2056475
    983,  -32.5729256,           7.,    13.974041
    984,  -30.6826057,           6.,    13.974041
    985,  -32.5729256,           5.,    13.974041
    986,  -30.6826057,           5.,   15.2056475
    987,  -30.6826057,           7.,   15.2056475
    988,  -28.7922859,           7.,    13.974041
    989,   -26.901968,           6.,    13.974041
    990,  -28.7922859,           5.,    13.974041
    991,  -26.7951088,           5.,   15.2056475
    992,  -26.7951088,           7.,   15.2056475
    993,  -25.0116482,           7.,    13.974041
    994,  -23.1213284,           6.,    13.974041
    995,  -25.0116482,           5.,    13.974041
    996,  -22.9076118,           5.,   15.2056475
    997,  -22.9076118,           7.,   15.2056475
    998,  -21.2310104,           7.,    13.974041
    999,  -19.3406906,           6.,    13.974041
   1000,  -21.2310104,           5.,    13.974041
   1001,  -18.9887486,           5.,   15.1974821
   1002,  -18.9887486,           7.,   15.1974821
   1003,  -39.3939667,           7.,   11.5887852
   1004,  -37.6516953,           6.,   11.5887852
   1005,  -39.3939667,           5.,   11.5887852
   1006,  -41.1362381,           6.,   11.5887852
   1007,  -41.6107559,           5.,   12.7701006
   1008,  -41.6107559,           7.,   12.7701006
   1009,  -37.9477921,           5.,   12.7814131
   1010,  -37.9477921,           7.,   12.7814131
   1011,  -35.9094238,           7.,   11.5887852
   1012,  -34.1671486,           6.,   11.5887852
   1013,  -35.9094238,           5.,   11.5887852
   1014,   -34.315197,           5.,   12.7814131
   1015,   -34.315197,           7.,   12.7814131
   1016,  -32.4248772,           7.,   11.5887852
   1017,  -30.6826057,           6.,   11.5887852
   1018,  -32.4248772,           5.,   11.5887852
   1019,  -30.6826057,           5.,   12.7814131
   1020,  -30.6826057,           7.,   12.7814131
   1021,  -28.9403343,           7.,   11.5887852
   1022,   -27.198061,           6.,   11.5887852
   1023,  -28.9403343,           5.,   11.5887852
   1024,  -27.0500145,           5.,   12.7814131
   1025,  -27.0500145,           7.,   12.7814131
   1026,  -25.4557896,           7.,   11.5887852
   1027,  -23.7135181,           6.,   11.5887852
   1028,  -25.4557896,           5.,   11.5887852
   1029,  -23.4174232,           5.,   12.7814131
   1030,  -23.4174232,           7.,   12.7814131
   1031,  -21.9712448,           7.,   11.5887852
   1032,  -20.2289734,           6.,   11.5887852
   1033,  -21.9712448,           5.,   11.5887852
   1034,  -19.7544556,           5.,   12.7701006
   1035,  -19.7544556,           7.,   12.7701006
   1036,  -38.4554596,           7.,   9.30621243
   1037,  -36.9008865,           6.,   9.30621243
   1038,  -38.4554596,           5.,   9.30621243
   1039,  -40.0100288,           6.,   9.30621243
   1040,  -40.6021996,           5.,    10.433157
   1041,  -40.6021996,           7.,    10.433157
   1042,  -37.2762909,           5.,   10.4474983
   1043,  -37.2762909,           7.,   10.4474983
   1044,  -35.3463173,           7.,   9.30621243
   1045,   -33.791748,           6.,   9.30621243
   1046,  -35.3463173,           5.,   9.30621243
   1047,  -33.9794464,           5.,   10.4474983
   1048,  -33.9794464,           7.,   10.4474983
   1049,   -32.237175,           7.,   9.30621243
   1050,  -30.6826057,           6.,   9.30621243
   1051,   -32.237175,           5.,   9.30621243
   1052,  -30.6826057,           5.,   10.4474983
   1053,  -30.6826057,           7.,   10.4474983
   1054,  -29.1280365,           7.,   9.30621243
   1055,  -27.5734653,           6.,   9.30621243
   1056,  -29.1280365,           5.,   9.30621243
   1057,  -27.3857632,           5.,   10.4474983
   1058,  -27.3857632,           7.,   10.4474983
   1059,  -26.0188942,           7.,   9.30621243
   1060,   -24.464325,           6.,   9.30621243
   1061,  -26.0188942,           5.,   9.30621243
   1062,  -24.0889206,           5.,   10.4474983
   1063,  -24.0889206,           7.,   10.4474983
   1064,  -22.9097557,           7.,   9.30621243
   1065,  -21.3551846,           6.,   9.30621243
   1066,  -22.9097557,           5.,   9.30621243
   1067,    -20.76301,           5.,    10.433157
   1068,    -20.76301,           7.,    10.433157
   1069,  -37.3284035,           7.,    7.1499815
   1070,  -35.9992447,           6.,    7.1499815
   1071,  -37.3284035,           5.,    7.1499815
   1072,  -38.6575623,           6.,    7.1499815
   1073,  -39.3612556,           5.,    8.2108736
   1074,  -39.3612556,           7.,    8.2108736
   1075,  -36.4500656,           5.,   8.22809696
   1076,  -36.4500656,           7.,   8.22809696
   1077,  -34.6700821,           7.,    7.1499815
   1078,  -33.3409233,           6.,    7.1499815
   1079,  -34.6700821,           5.,    7.1499815
   1080,  -33.5663376,           5.,   8.22809696
   1081,  -33.5663376,           7.,   8.22809696
   1082,  -32.0117645,           7.,    7.1499815
   1083,  -30.6826057,           6.,    7.1499815
   1084,  -32.0117645,           5.,    7.1499815
   1085,  -30.6826057,           5.,   8.22809696
   1086,  -30.6826057,           7.,   8.22809696
   1087,   -29.353447,           7.,    7.1499815
   1088,  -28.0242863,           6.,    7.1499815
   1089,   -29.353447,           5.,    7.1499815
   1090,  -27.7988758,           5.,   8.22809696
   1091,  -27.7988758,           7.,   8.22809696
   1092,  -26.6951275,           7.,    7.1499815
   1093,  -25.3659687,           6.,    7.1499815
   1094,  -26.6951275,           5.,    7.1499815
   1095,  -24.9151459,           5.,   8.22809696
   1096,  -24.9151459,           7.,   8.22809696
   1097,   -24.036808,           7.,    7.1499815
   1098,  -22.7076492,           6.,    7.1499815
   1099,   -24.036808,           5.,    7.1499815
   1100,  -22.0039577,           5.,    8.2108736
   1101,  -22.0039577,           7.,    8.2108736
   1102,  -36.0244865,           7.,   5.14244413
   1103,  -34.9561119,           6.,   5.14244413
   1104,  -36.0244865,           5.,   5.14244413
   1105,  -37.0928612,           6.,   5.14244413
   1106,  -37.9007759,           5.,   6.12628698
   1107,  -37.9007759,           7.,   6.12628698
   1108,  -35.4776764,           5.,   6.14621258
   1109,  -35.4776764,           7.,   6.14621258
   1110,  -33.8877335,           7.,   5.14244413
   1111,  -32.8193588,           6.,   5.14244413
   1112,  -33.8877335,           5.,   5.14244413
   1113,  -33.0801392,           5.,   6.14621258
   1114,  -33.0801392,           7.,   6.14621258
   1115,  -31.7509823,           7.,   5.14244413
   1116,  -30.6826057,           6.,   5.14244413
   1117,  -31.7509823,           5.,   5.14244413
   1118,  -30.6826057,           5.,   6.14621258
   1119,  -30.6826057,           7.,   6.14621258
   1120,  -29.6142311,           7.,   5.14244413
   1121,  -28.5458546,           6.,   5.14244413
   1122,  -29.6142311,           5.,   5.14244413
   1123,  -28.2850704,           5.,   6.14621258
   1124,  -28.2850704,           7.,   6.14621258
   1125,   -27.477478,           7.,   5.14244413
   1126,  -26.4091015,           6.,   5.14244413
   1127,   -27.477478,           5.,   5.14244413
   1128,  -25.8875351,           5.,   6.14621258
   1129,  -25.8875351,           7.,   6.14621258
   1130,  -25.3407249,           7.,   5.14244413
   1131,  -24.2723503,           6.,   5.14244413
   1132,  -25.3407249,           5.,   5.14244413
   1133,  -23.4644337,           5.,   6.12628698
   1134,  -23.4644337,           7.,   6.12628698
   1135,  -34.8112679,           7.,   3.11974216
   1136,  -33.9855347,           6.,   3.11974216
   1137,  -34.8112679,           5.,   3.11974216
   1138,   -35.637001,           6.,   3.11974192
   1139,  -36.3198357,           5.,   4.16355228
   1140,  -36.3198357,           7.,   4.16355228
   1141,  -34.4708252,           5.,   4.13109303
   1142,  -34.4708252,           7.,   4.13109303
   1143,  -33.1598053,           7.,   3.11974216
   1144,  -32.3340721,           6.,   3.11974216
   1145,  -33.1598053,           5.,   3.11974216
   1146,  -32.5767136,           5.,   4.13109303
   1147,  -32.5767136,           7.,   4.13109303
   1148,  -31.5083389,           7.,   3.11974216
   1149,  -30.6826057,           6.,   3.11974216
   1150,  -31.5083389,           5.,   3.11974216
   1151,  -30.6826057,           5.,   4.13109303
   1152,  -30.6826057,           7.,   4.13109303
   1153,  -29.8568726,           7.,   3.11974216
   1154,  -29.0311413,           6.,   3.11974216
   1155,  -29.8568726,           5.,   3.11974216
   1156,  -28.7884979,           5.,   4.13109303
   1157,  -28.7884979,           7.,   4.13109303
   1158,  -28.2054081,           7.,   3.11974216
   1159,  -27.3796749,           6.,   3.11974216
   1160,  -28.2054081,           5.,   3.11974216
   1161,  -26.8943882,           5.,   4.13109303
   1162,  -26.8943882,           7.,   4.13109303
   1163,  -26.5539436,           7.,   3.11974216
   1164,  -25.7282104,           6.,   3.11974216
   1165,  -26.5539436,           5.,   3.11974216
   1166,  -25.0453777,           5.,   4.16355276
   1167,  -25.0453777,           7.,   4.16355276
   1168,  -33.9161377,           7.,   0.87095654
   1169,  -33.2694283,           6.,   0.87095654
   1170,  -33.9161377,           5.,   0.87095654
   1171,  -34.5628433,           6.,  0.870956957
   1172,  -35.0497818,           5.,   2.01929855
   1173,  -35.0497818,           7.,   2.01929855
   1174,  -33.6274796,           5.,   1.99534941
   1175,  -33.6274796,           7.,   1.99534941
   1176,  -32.6227226,           7.,   0.87095654
   1177,  -31.9760189,           6.,   0.87095654
   1178,  -32.6227226,           5.,   0.87095654
   1179,  -32.1550446,           5.,   1.99534941
   1180,  -32.1550446,           7.,   1.99534941
   1181,  -31.3293114,           7.,   0.87095654
   1182,  -30.6826057,           6.,   0.87095654
   1183,  -31.3293114,           5.,   0.87095654
   1184,  -30.6826057,           5.,   1.99534941
   1185,  -30.6826057,           7.,   1.99534941
   1186,  -30.0359001,           7.,   0.87095654
   1187,  -29.3891945,           6.,   0.87095654
   1188,  -30.0359001,           5.,   0.87095654
   1189,  -29.2101669,           5.,   1.99534941
   1190,  -29.2101669,           7.,   1.99534941
   1191,  -28.7424889,           7.,   0.87095654
   1192,  -28.0957813,           6.,   0.87095654
   1193,  -28.7424889,           5.,   0.87095654
   1194,  -27.7377281,           5.,   1.99534941
   1195,  -27.7377281,           7.,   1.99534941
   1196,  -27.4490757,           7.,   0.87095654
   1197,  -26.8023701,           6.,  0.870956481
   1198,  -27.4490757,           5.,   0.87095654
   1199,  -26.3154278,           5.,   2.01929855
   1200,  -26.3154278,           7.,   2.01929855
   1201,  -33.3674545,           7.,  -1.53265285
   1202,  -32.8304825,           6.,  -1.53265285
   1203,  -33.3674545,           5.,  -1.53265285
   1204,  -33.9044228,           6.,  -1.53265274
   1205,  -34.1800423,           5.,  -0.31616801
   1206,  -34.1800423,           7.,  -0.31616801
   1207,  -33.0499573,           5., -0.330848157
   1208,  -33.0499573,           7., -0.330848157
   1209,  -32.2935143,           7.,  -1.53265285
   1210,  -31.7565441,           6.,  -1.53265285
   1211,  -32.2935143,           5.,  -1.53265285
   1212,  -31.8662815,           5., -0.330848157
   1213,  -31.8662815,           7., -0.330848157
   1214,   -31.219574,           7.,  -1.53265285
   1215,  -30.6826057,           6.,  -1.53265285
   1216,   -31.219574,           5.,  -1.53265285
   1217,  -30.6826057,           5., -0.330848157
   1218,  -30.6826057,           7., -0.330848157
   1219,  -30.1456375,           7.,  -1.53265285
   1220,  -29.6086674,           6.,  -1.53265285
   1221,  -30.1456375,           5.,  -1.53265285
   1222,  -29.4989319,           5., -0.330848157
   1223,  -29.4989319,           7., -0.330848157
   1224,  -29.0716972,           7.,  -1.53265285
   1225,   -28.534729,           6.,  -1.53265285
   1226,  -29.0716972,           5.,  -1.53265285
   1227,  -28.3152542,           5., -0.330848157
   1228,  -28.3152542,           7., -0.330848157
   1229,  -27.9977608,           7.,  -1.53265285
   1230,  -27.4607906,           6.,  -1.53265297
   1231,  -27.9977608,           5.,  -1.53265285
   1232,  -27.1851692,           5., -0.316168338
   1233,  -27.1851692,           7., -0.316168338
   1234,  -33.1826057,           7.,  -4.01492071
   1235,  -32.6826057,           6.,  -4.01492071
   1236,  -33.1826057,           5.,  -4.01492071
   1237,  -33.6826057,           6.,  -4.01492071
   1238,  -33.7381706,           5.,  -2.76884103
   1239,  -33.7381706,           7.,  -2.76884103
   1240,   -32.756546,           5.,  -2.77378678
   1241,   -32.756546,           7.,  -2.77378678
   1242,  -32.1826057,           7.,  -4.01492071
   1243,  -31.6826057,           6.,  -4.01492071
   1244,  -32.1826057,           5.,  -4.01492071
   1245,   -31.719574,           5.,  -2.77378678
   1246,   -31.719574,           7.,  -2.77378678
   1247,  -31.1826057,           7.,  -4.01492071
   1248,  -30.6826057,           6.,  -4.01492071
   1249,  -31.1826057,           5.,  -4.01492071
   1250,  -30.6826057,           5.,  -2.77378678
   1251,  -30.6826057,           7.,  -2.77378678
   1252,  -30.1826057,           7.,  -4.01492071
   1253,  -29.6826057,           6.,  -4.01492071
   1254,  -30.1826057,           5.,  -4.01492071
   1255,  -29.6456375,           5.,  -2.77378678
   1256,  -29.6456375,           7.,  -2.77378678
   1257,  -29.1826057,           7.,  -4.01492071
   1258,  -28.6826057,           6.,  -4.01492071
   1259,  -29.1826057,           5.,  -4.01492071
   1260,  -28.6086674,           5.,  -2.77378678
   1261,  -28.6086674,           7.,  -2.77378678
   1262,  -28.1826057,           7.,  -4.01492071
   1263,  -27.6826057,           6.,  -4.01492071
   1264,  -28.1826057,           5.,  -4.01492071
   1265,  -27.6270409,           5.,  -2.76884127
   1266,  -27.6270409,           7.,  -2.76884127
   1267,  -33.1826057,           7.,  -6.26496983
   1268,  -32.6826057,           6.,  -6.26496983
   1269,  -33.1826057,           5.,  -6.26496983
   1270,  -33.6826057,           6.,  -6.26496983
   1271,  -33.6826057,           5.,  -5.13994503
   1272,  -33.6826057,           7.,  -5.13994503
   1273,  -32.6826057,           5.,  -5.13994503
   1274,  -32.6826057,           7.,  -5.13994503
   1275,  -32.1826057,           7.,  -6.26496983
   1276,  -31.6826057,           6.,  -6.26496983
   1277,  -32.1826057,           5.,  -6.26496983
   1278,  -31.6826057,           5.,  -5.13994503
   1279,  -31.6826057,           7.,  -5.13994503
   1280,  -31.1826057,           7.,  -6.26496983
   1281,  -30.6826057,           6.,  -6.26496983
   1282,  -31.1826057,           5.,  -6.26496983
   1283,  -30.6826057,           5.,  -5.13994503
   1284,  -30.6826057,           7.,  -5.13994503
   1285,  -30.1826057,           7.,  -6.26496983
   1286,  -29.6826057,           6.,  -6.26496983
   1287,  -30.1826057,           5.,  -6.26496983
   1288,  -29.6826057,           5.,  -5.13994503
   1289,  -29.6826057,           7.,  -5.13994503
   1290,  -29.1826057,           7.,  -6.26496983
   1291,  -28.6826057,           6.,  -6.26496983
   1292,  -29.1826057,           5.,  -6.26496983
   1293,  -28.6826057,           5.,  -5.13994503
   1294,  -28.6826057,           7.,  -5.13994503
   1295,  -28.1826057,           7.,  -6.26496983
   1296,  -27.6826057,           6.,  -6.26496983
   1297,  -28.1826057,           5.,  -6.26496983
   1298,  -27.6826057,           5.,  -5.13994503
   1299,  -27.6826057,           7.,  -5.13994503
   1300,  -33.1826057,           7.,  -8.51501942
   1301,  -32.6826057,           6.,  -8.51501942
   1302,  -33.1826057,           5.,  -8.51501942
   1303,  -33.6826057,           6.,  -8.51501942
   1304,  -33.6826057,           5.,  -7.38999462
   1305,  -33.6826057,           7.,  -7.38999462
   1306,  -32.6826057,           5.,  -7.38999462
   1307,  -32.6826057,           7.,  -7.38999462
   1308,  -32.1826057,           7.,  -8.51501942
   1309,  -31.6826057,           6.,  -8.51501942
   1310,  -32.1826057,           5.,  -8.51501942
   1311,  -31.6826057,           5.,  -7.38999462
   1312,  -31.6826057,           7.,  -7.38999462
   1313,  -31.1826057,           7.,  -8.51501942
   1314,  -30.6826057,           6.,  -8.51501942
   1315,  -31.1826057,           5.,  -8.51501942
   1316,  -30.6826057,           5.,  -7.38999462
   1317,  -30.6826057,           7.,  -7.38999462
   1318,  -30.1826057,           7.,  -8.51501942
   1319,  -29.6826057,           6.,  -8.51501942
   1320,  -30.1826057,           5.,  -8.51501942
   1321,  -29.6826057,           5.,  -7.38999462
   1322,  -29.6826057,           7.,  -7.38999462
   1323,  -29.1826057,           7.,  -8.51501942
   1324,  -28.6826057,           6.,  -8.51501942
   1325,  -29.1826057,           5.,  -8.51501942
   1326,  -28.6826057,           5.,  -7.38999462
   1327,  -28.6826057,           7.,  -7.38999462
   1328,  -28.1826057,           7.,  -8.51501942
   1329,  -27.6826057,           6.,  -8.51501942
   1330,  -28.1826057,           5.,  -8.51501942
   1331,  -27.6826057,           5.,  -7.38999462
   1332,  -27.6826057,           7.,  -7.38999462
   1333,  -33.1826057,           7.,   -10.765069
   1334,  -32.6826057,           6.,   -10.765069
   1335,  -33.1826057,           5.,   -10.765069
   1336,  -33.6826057,           6.,   -10.765069
   1337,  -33.6826057,           5.,  -9.64004421
   1338,  -33.6826057,           7.,  -9.64004421
   1339,  -32.6826057,           5.,  -9.64004421
   1340,  -32.6826057,           7.,  -9.64004421
   1341,  -32.1826057,           7.,   -10.765069
   1342,  -31.6826057,           6.,   -10.765069
   1343,  -32.1826057,           5.,   -10.765069
   1344,  -31.6826057,           5.,  -9.64004421
   1345,  -31.6826057,           7.,  -9.64004421
   1346,  -31.1826057,           7.,   -10.765069
   1347,  -30.6826057,           6.,   -10.765069
   1348,  -31.1826057,           5.,   -10.765069
   1349,  -30.6826057,           5.,  -9.64004421
   1350,  -30.6826057,           7.,  -9.64004421
   1351,  -30.1826057,           7.,   -10.765069
   1352,  -29.6826057,           6.,   -10.765069
   1353,  -30.1826057,           5.,   -10.765069
   1354,  -29.6826057,           5.,  -9.64004421
   1355,  -29.6826057,           7.,  -9.64004421
   1356,  -29.1826057,           7.,   -10.765069
   1357,  -28.6826057,           6.,   -10.765069
   1358,  -29.1826057,           5.,   -10.765069
   1359,  -28.6826057,           5.,  -9.64004421
   1360,  -28.6826057,           7.,  -9.64004421
   1361,  -28.1826057,           7.,   -10.765069
   1362,  -27.6826057,           6.,   -10.765069
   1363,  -28.1826057,           5.,   -10.765069
   1364,  -27.6826057,           5.,  -9.64004421
   1365,  -27.6826057,           7.,  -9.64004421
   1366,  -33.1826057,           7.,  -13.0151186
   1367,  -32.6826057,           6.,  -13.0151186
   1368,  -33.1826057,           5.,  -13.0151186
   1369,  -33.6826057,           6.,  -13.0151186
   1370,  -33.6826057,           5.,  -11.8900938
   1371,  -33.6826057,           7.,  -11.8900938
   1372,  -32.6826057,           5.,  -11.8900938
   1373,  -32.6826057,           7.,  -11.8900938
   1374,  -32.1826057,           7.,  -13.0151186
   1375,  -31.6826057,           6.,  -13.0151186
   1376,  -32.1826057,           5.,  -13.0151186
   1377,  -31.6826057,           5.,  -11.8900938
   1378,  -31.6826057,           7.,  -11.8900938
   1379,  -31.1826057,           7.,  -13.0151186
   1380,  -30.6826057,           6.,  -13.0151186
   1381,  -31.1826057,           5.,  -13.0151186
   1382,  -30.6826057,           5.,  -11.8900938
   1383,  -30.6826057,           7.,  -11.8900938
   1384,  -30.1826057,           7.,  -13.0151186
   1385,  -29.6826057,           6.,  -13.0151186
   1386,  -30.1826057,           5.,  -13.0151186
   1387,  -29.6826057,           5.,  -11.8900938
   1388,  -29.6826057,           7.,  -11.8900938
   1389,  -29.1826057,           7.,  -13.0151186
   1390,  -28.6826057,           6.,  -13.0151186
   1391,  -29.1826057,           5.,  -13.0151186
   1392,  -28.6826057,           5.,  -11.8900938
   1393,  -28.6826057,           7.,  -11.8900938
   1394,  -28.1826057,           7.,  -13.0151186
   1395,  -27.6826057,           6.,  -13.0151186
   1396,  -28.1826057,           5.,  -13.0151186
   1397,  -27.6826057,           5.,  -11.8900938
   1398,  -27.6826057,           7.,  -11.8900938
   1399,  -33.1826057,           7.,  -15.5151186
   1400,  -32.6826057,           6.,  -15.5151186
   1401,  -33.1826057,           5.,  -15.5151186
   1402,  -33.6826057,           6.,  -15.5151186
   1403,  -33.6826057,           5.,  -14.2651186
   1404,  -33.6826057,           7.,  -14.2651186
   1405,  -32.6826057,           5.,  -14.2651186
   1406,  -32.6826057,           7.,  -14.2651186
   1407,  -32.1826057,           7.,  -15.5151186
   1408,  -31.6826057,           6.,  -15.5151186
   1409,  -32.1826057,           5.,  -15.5151186
   1410,  -31.6826057,           5.,  -14.2651186
   1411,  -31.6826057,           7.,  -14.2651186
   1412,  -31.1826057,           7.,  -15.5151186
   1413,  -30.6826057,           6.,  -15.5151186
   1414,  -31.1826057,           5.,  -15.5151186
   1415,  -30.6826057,           5.,  -14.2651186
   1416,  -30.6826057,           7.,  -14.2651186
   1417,  -30.1826057,           7.,  -15.5151186
   1418,  -29.6826057,           6.,  -15.5151186
   1419,  -30.1826057,           5.,  -15.5151186
   1420,  -29.6826057,           5.,  -14.2651186
   1421,  -29.6826057,           7.,  -14.2651186
   1422,  -29.1826057,           7.,  -15.5151186
   1423,  -28.6826057,           6.,  -15.5151186
   1424,  -29.1826057,           5.,  -15.5151186
   1425,  -28.6826057,           5.,  -14.2651186
   1426,  -28.6826057,           7.,  -14.2651186
   1427,  -28.1826057,           7.,  -15.5151186
   1428,  -27.6826057,           6.,  -15.5151186
   1429,  -28.1826057,           5.,  -15.5151186
   1430,  -27.6826057,           5.,  -14.2651186
   1431,  -27.6826057,           7.,  -14.2651186
   1432,  -33.1826057,           7.,  -18.0151176
   1433,  -32.6826057,           6.,  -18.0151176
   1434,  -33.1826057,           5.,  -18.0151176
   1435,  -33.6826057,           6.,  -18.0151176
   1436,  -33.6826057,           5.,  -16.7651176
   1437,  -33.6826057,           7.,  -16.7651176
   1438,  -32.6826057,           5.,  -16.7651176
   1439,  -32.6826057,           7.,  -16.7651176
   1440,  -32.1826057,           7.,  -18.0151176
   1441,  -31.6826057,           6.,  -18.0151176
   1442,  -32.1826057,           5.,  -18.0151176
   1443,  -31.6826057,           5.,  -16.7651176
   1444,  -31.6826057,           7.,  -16.7651176
   1445,  -31.1826057,           7.,  -18.0151176
   1446,  -30.6826057,           6.,  -18.0151176
   1447,  -31.1826057,           5.,  -18.0151176
   1448,  -30.6826057,           5.,  -16.7651176
   1449,  -30.6826057,           7.,  -16.7651176
   1450,  -30.1826057,           7.,  -18.0151176
   1451,  -29.6826057,           6.,  -18.0151176
   1452,  -30.1826057,           5.,  -18.0151176
   1453,  -29.6826057,           5.,  -16.7651176
   1454,  -29.6826057,           7.,  -16.7651176
   1455,  -29.1826057,           7.,  -18.0151176
   1456,  -28.6826057,           6.,  -18.0151176
   1457,  -29.1826057,           5.,  -18.0151176
   1458,  -28.6826057,           5.,  -16.7651176
   1459,  -28.6826057,           7.,  -16.7651176
   1460,  -28.1826057,           7.,  -18.0151176
   1461,  -27.6826057,           6.,  -18.0151176
   1462,  -28.1826057,           5.,  -18.0151176
   1463,  -27.6826057,           5.,  -16.7651176
   1464,  -27.6826057,           7.,  -16.7651176
   1465,  -33.1826057,           7.,  -20.5151176
   1466,  -32.6826057,           6.,  -20.5151176
   1467,  -33.1826057,           5.,  -20.5151176
   1468,  -33.6826057,           6.,  -20.5151176
   1469,  -33.6826057,           5.,  -19.2651176
   1470,  -33.6826057,           7.,  -19.2651176
   1471,  -32.6826057,           5.,  -19.2651176
   1472,  -32.6826057,           7.,  -19.2651176
   1473,  -32.1826057,           7.,  -20.5151176
   1474,  -31.6826057,           6.,  -20.5151176
   1475,  -32.1826057,           5.,  -20.5151176
   1476,  -31.6826057,           5.,  -19.2651176
   1477,  -31.6826057,           7.,  -19.2651176
   1478,  -31.1826057,           7.,  -20.5151176
   1479,  -30.6826057,           6.,  -20.5151176
   1480,  -31.1826057,           5.,  -20.5151176
   1481,  -30.6826057,           5.,  -19.2651176
   1482,  -30.6826057,           7.,  -19.2651176
   1483,  -30.1826057,           7.,  -20.5151176
   1484,  -29.6826057,           6.,  -20.5151176
   1485,  -30.1826057,           5.,  -20.5151176
   1486,  -29.6826057,           5.,  -19.2651176
   1487,  -29.6826057,           7.,  -19.2651176
   1488,  -29.1826057,           7.,  -20.5151176
   1489,  -28.6826057,           6.,  -20.5151176
   1490,  -29.1826057,           5.,  -20.5151176
   1491,  -28.6826057,           5.,  -19.2651176
   1492,  -28.6826057,           7.,  -19.2651176
   1493,  -28.1826057,           7.,  -20.5151176
   1494,  -27.6826057,           6.,  -20.5151176
   1495,  -28.1826057,           5.,  -20.5151176
   1496,  -27.6826057,           5.,  -19.2651176
   1497,  -27.6826057,           7.,  -19.2651176
   1498,  -33.1826057,           7.,  -23.0151176
   1499,  -32.6826057,           6.,  -23.0151176
   1500,  -33.1826057,           5.,  -23.0151176
   1501,  -33.6826057,           6.,  -23.0151176
   1502,  -33.6826057,           5.,  -21.7651176
   1503,  -33.6826057,           7.,  -21.7651176
   1504,  -32.6826057,           5.,  -21.7651176
   1505,  -32.6826057,           7.,  -21.7651176
   1506,  -32.1826057,           7.,  -23.0151176
   1507,  -31.6826057,           6.,  -23.0151176
   1508,  -32.1826057,           5.,  -23.0151176
   1509,  -31.6826057,           5.,  -21.7651176
   1510,  -31.6826057,           7.,  -21.7651176
   1511,  -31.1826057,           7.,  -23.0151176
   1512,  -30.6826057,           6.,  -23.0151176
   1513,  -31.1826057,           5.,  -23.0151176
   1514,  -30.6826057,           5.,  -21.7651176
   1515,  -30.6826057,           7.,  -21.7651176
   1516,  -30.1826057,           7.,  -23.0151176
   1517,  -29.6826057,           6.,  -23.0151176
   1518,  -30.1826057,           5.,  -23.0151176
   1519,  -29.6826057,           5.,  -21.7651176
   1520,  -29.6826057,           7.,  -21.7651176
   1521,  -29.1826057,           7.,  -23.0151176
   1522,  -28.6826057,           6.,  -23.0151176
   1523,  -29.1826057,           5.,  -23.0151176
   1524,  -28.6826057,           5.,  -21.7651176
   1525,  -28.6826057,           7.,  -21.7651176
   1526,  -28.1826057,           7.,  -23.0151176
   1527,  -27.6826057,           6.,  -23.0151176
   1528,  -28.1826057,           5.,  -23.0151176
   1529,  -27.6826057,           5.,  -21.7651176
   1530,  -27.6826057,           7.,  -21.7651176
   1531,  -33.1826057,           7.,  -25.5151176
   1532,  -32.6826057,           6.,  -25.5151176
   1533,  -33.1826057,           5.,  -25.5151176
   1534,  -33.6826057,           6.,  -25.5151176
   1535,  -33.6826057,           5.,  -24.2651176
   1536,  -33.6826057,           7.,  -24.2651176
   1537,  -32.6826057,           5.,  -24.2651176
   1538,  -32.6826057,           7.,  -24.2651176
   1539,  -32.1826057,           7.,  -25.5151176
   1540,  -31.6826057,           6.,  -25.5151176
   1541,  -32.1826057,           5.,  -25.5151176
   1542,  -31.6826057,           5.,  -24.2651176
   1543,  -31.6826057,           7.,  -24.2651176
   1544,  -31.1826057,           7.,  -25.5151176
   1545,  -30.6826057,           6.,  -25.5151176
   1546,  -31.1826057,           5.,  -25.5151176
   1547,  -30.6826057,           5.,  -24.2651176
   1548,  -30.6826057,           7.,  -24.2651176
   1549,  -30.1826057,           7.,  -25.5151176
   1550,  -29.6826057,           6.,  -25.5151176
   1551,  -30.1826057,           5.,  -25.5151176
   1552,  -29.6826057,           5.,  -24.2651176
   1553,  -29.6826057,           7.,  -24.2651176
   1554,  -29.1826057,           7.,  -25.5151176
   1555,  -28.6826057,           6.,  -25.5151176
   1556,  -29.1826057,           5.,  -25.5151176
   1557,  -28.6826057,           5.,  -24.2651176
   1558,  -28.6826057,           7.,  -24.2651176
   1559,  -28.1826057,           7.,  -25.5151176
   1560,  -27.6826057,           6.,  -25.5151176
   1561,  -28.1826057,           5.,  -25.5151176
   1562,  -27.6826057,           5.,  -24.2651176
   1563,  -27.6826057,           7.,  -24.2651176
   1564,  -33.1826057,           7.,  -28.0151176
   1565,  -32.6826057,           6.,  -28.0151176
   1566,  -33.1826057,           5.,  -28.0151176
   1567,  -33.6826057,           6.,  -28.0151176
   1568,  -33.6826057,           5.,  -26.7651176
   1569,  -33.6826057,           7.,  -26.7651176
   1570,  -32.6826057,           5.,  -26.7651176
   1571,  -32.6826057,           7.,  -26.7651176
   1572,  -32.1826057,           7.,  -28.0151176
   1573,  -31.6826057,           6.,  -28.0151176
   1574,  -32.1826057,           5.,  -28.0151176
   1575,  -31.6826057,           5.,  -26.7651176
   1576,  -31.6826057,           7.,  -26.7651176
   1577,  -31.1826057,           7.,  -28.0151176
   1578,  -30.6826057,           6.,  -28.0151176
   1579,  -31.1826057,           5.,  -28.0151176
   1580,  -30.6826057,           5.,  -26.7651176
   1581,  -30.6826057,           7.,  -26.7651176
   1582,  -30.1826057,           7.,  -28.0151176
   1583,  -29.6826057,           6.,  -28.0151176
   1584,  -30.1826057,           5.,  -28.0151176
   1585,  -29.6826057,           5.,  -26.7651176
   1586,  -29.6826057,           7.,  -26.7651176
   1587,  -29.1826057,           7.,  -28.0151176
   1588,  -28.6826057,           6.,  -28.0151176
   1589,  -29.1826057,           5.,  -28.0151176
   1590,  -28.6826057,           5.,  -26.7651176
   1591,  -28.6826057,           7.,  -26.7651176
   1592,  -28.1826057,           7.,  -28.0151176
   1593,  -27.6826057,           6.,  -28.0151176
   1594,  -28.1826057,           5.,  -28.0151176
   1595,  -27.6826057,           5.,  -26.7651176
   1596,  -27.6826057,           7.,  -26.7651176
   1597,  -33.1826057,           7.,  -30.2651672
   1598,  -32.6826057,           6.,  -30.2651672
   1599,  -33.1826057,           5.,  -30.2651672
   1600,  -33.6826057,           6.,  -30.2651672
   1601,  -33.6826057,           5.,  -29.1401424
   1602,  -33.6826057,           7.,  -29.1401424
   1603,  -32.6826057,           5.,  -29.1401424
   1604,  -32.6826057,           7.,  -29.1401424
   1605,  -32.1826057,           7.,  -30.2651672
   1606,  -31.6826057,           6.,  -30.2651672
   1607,  -32.1826057,           5.,  -30.2651672
   1608,  -31.6826057,           5.,  -29.1401424
   1609,  -31.6826057,           7.,  -29.1401424
   1610,  -31.1826057,           7.,  -30.2651672
   1611,  -30.6826057,           6.,  -30.2651672
   1612,  -31.1826057,           5.,  -30.2651672
   1613,  -30.6826057,           5.,  -29.1401424
   1614,  -30.6826057,           7.,  -29.1401424
   1615,  -30.1826057,           7.,  -30.2651672
   1616,  -29.6826057,           6.,  -30.2651672
   1617,  -30.1826057,           5.,  -30.2651672
   1618,  -29.6826057,           5.,  -29.1401424
   1619,  -29.6826057,           7.,  -29.1401424
   1620,  -29.1826057,           7.,  -30.2651672
   1621,  -28.6826057,           6.,  -30.2651672
   1622,  -29.1826057,           5.,  -30.2651672
   1623,  -28.6826057,           5.,  -29.1401424
   1624,  -28.6826057,           7.,  -29.1401424
   1625,  -28.1826057,           7.,  -30.2651672
   1626,  -27.6826057,           6.,  -30.2651672
   1627,  -28.1826057,           5.,  -30.2651672
   1628,  -27.6826057,           5.,  -29.1401424
   1629,  -27.6826057,           7.,  -29.1401424
   1630,  -33.1826057,           7.,  -32.5152168
   1631,  -32.6826057,           6.,  -32.5152168
   1632,  -33.1826057,           5.,  -32.5152168
   1633,  -33.6826057,           6.,  -32.5152168
   1634,  -33.6826057,           5.,   -31.390192
   1635,  -33.6826057,           7.,   -31.390192
   1636,  -32.6826057,           5.,   -31.390192
   1637,  -32.6826057,           7.,   -31.390192
   1638,  -32.1826057,           7.,  -32.5152168
   1639,  -31.6826057,           6.,  -32.5152168
   1640,  -32.1826057,           5.,  -32.5152168
   1641,  -31.6826057,           5.,   -31.390192
   1642,  -31.6826057,           7.,   -31.390192
   1643,  -31.1826057,           7.,  -32.5152168
   1644,  -30.6826057,           6.,  -32.5152168
   1645,  -31.1826057,           5.,  -32.5152168
   1646,  -30.6826057,           5.,   -31.390192
   1647,  -30.6826057,           7.,   -31.390192
   1648,  -30.1826057,           7.,  -32.5152168
   1649,  -29.6826057,           6.,  -32.5152168
   1650,  -30.1826057,           5.,  -32.5152168
   1651,  -29.6826057,           5.,   -31.390192
   1652,  -29.6826057,           7.,   -31.390192
   1653,  -29.1826057,           7.,  -32.5152168
   1654,  -28.6826057,           6.,  -32.5152168
   1655,  -29.1826057,           5.,  -32.5152168
   1656,  -28.6826057,           5.,   -31.390192
   1657,  -28.6826057,           7.,   -31.390192
   1658,  -28.1826057,           7.,  -32.5152168
   1659,  -27.6826057,           6.,  -32.5152168
   1660,  -28.1826057,           5.,  -32.5152168
   1661,  -27.6826057,           5.,   -31.390192
   1662,  -27.6826057,           7.,   -31.390192
   1663,  -33.1826057,           7.,  -34.7652664
   1664,  -32.6826057,           6.,  -34.7652664
   1665,  -33.1826057,           5.,  -34.7652664
   1666,  -33.6826057,           6.,  -34.7652664
   1667,  -33.6826057,           5.,  -33.6402435
   1668,  -33.6826057,           7.,  -33.6402435
   1669,  -32.6826057,           5.,  -33.6402435
   1670,  -32.6826057,           7.,  -33.6402435
   1671,  -32.1826057,           7.,  -34.7652664
   1672,  -31.6826057,           6.,  -34.7652664
   1673,  -32.1826057,           5.,  -34.7652664
   1674,  -31.6826057,           5.,  -33.6402435
   1675,  -31.6826057,           7.,  -33.6402435
   1676,  -31.1826057,           7.,  -34.7652664
   1677,  -30.6826057,           6.,  -34.7652664
   1678,  -31.1826057,           5.,  -34.7652664
   1679,  -30.6826057,           5.,  -33.6402435
   1680,  -30.6826057,           7.,  -33.6402435
   1681,  -30.1826057,           7.,  -34.7652664
   1682,  -29.6826057,           6.,  -34.7652664
   1683,  -30.1826057,           5.,  -34.7652664
   1684,  -29.6826057,           5.,  -33.6402435
   1685,  -29.6826057,           7.,  -33.6402435
   1686,  -29.1826057,           7.,  -34.7652664
   1687,  -28.6826057,           6.,  -34.7652664
   1688,  -29.1826057,           5.,  -34.7652664
   1689,  -28.6826057,           5.,  -33.6402435
   1690,  -28.6826057,           7.,  -33.6402435
   1691,  -28.1826057,           7.,  -34.7652664
   1692,  -27.6826057,           6.,  -34.7652664
   1693,  -28.1826057,           5.,  -34.7652664
   1694,  -27.6826057,           5.,  -33.6402435
   1695,  -27.6826057,           7.,  -33.6402435
   1696,  -33.1826057,           7.,   -37.015316
   1697,  -32.6826057,           6.,   -37.015316
   1698,  -33.1826057,           5.,   -37.015316
   1699,  -33.6826057,           6.,   -37.015316
   1700,  -33.6826057,           5.,  -35.8902931
   1701,  -33.6826057,           7.,  -35.8902931
   1702,  -32.6826057,           5.,  -35.8902893
   1703,  -32.6826057,           7.,  -35.8902893
   1704,  -32.1826057,           7.,   -37.015316
   1705,  -31.6826057,           6.,   -37.015316
   1706,  -32.1826057,           5.,   -37.015316
   1707,  -31.6826057,           5.,  -35.8902893
   1708,  -31.6826057,           7.,  -35.8902893
   1709,  -31.1826057,           7.,   -37.015316
   1710,  -30.6826057,           6.,   -37.015316
   1711,  -31.1826057,           5.,   -37.015316
   1712,  -30.6826057,           5.,  -35.8902893
   1713,  -30.6826057,           7.,  -35.8902893
   1714,  -30.1826057,           7.,   -37.015316
   1715,  -29.6826057,           6.,   -37.015316
   1716,  -30.1826057,           5.,   -37.015316
   1717,  -29.6826057,           5.,  -35.8902893
   1718,  -29.6826057,           7.,  -35.8902893
   1719,  -29.1826057,           7.,   -37.015316
   1720,  -28.6826057,           6.,   -37.015316
   1721,  -29.1826057,           5.,   -37.015316
   1722,  -28.6826057,           5.,  -35.8902893
   1723,  -28.6826057,           7.,  -35.8902893
   1724,  -28.1826057,           7.,   -37.015316
   1725,  -27.6826057,           6.,   -37.015316
   1726,  -28.1826057,           5.,   -37.015316
   1727,  -27.6826057,           5.,  -35.8902931
   1728,  -27.6826057,           7.,  -35.8902931
   1729,  -33.3674545,           7.,  -39.4975853
   1730,  -32.8304825,           6.,  -39.4975853
   1731,  -33.3674545,           5.,  -39.4975853
   1732,  -33.9044228,           6.,  -39.4975853
   1733,  -33.7381706,           5.,  -38.2613983
   1734,  -33.7381706,           7.,  -38.2613983
   1735,   -32.756546,           5.,  -38.2564507
   1736,   -32.756546,           7.,  -38.2564507
   1737,  -32.2935143,           7.,  -39.4975853
   1738,  -31.7565441,           6.,  -39.4975853
   1739,  -32.2935143,           5.,  -39.4975853
   1740,   -31.719574,           5.,  -38.2564507
   1741,   -31.719574,           7.,  -38.2564507
   1742,   -31.219574,           7.,  -39.4975853
   1743,  -30.6826057,           6.,  -39.4975853
   1744,   -31.219574,           5.,  -39.4975853
   1745,  -30.6826057,           5.,  -38.2564507
   1746,  -30.6826057,           7.,  -38.2564507
   1747,  -30.1456375,           7.,  -39.4975853
   1748,  -29.6086674,           6.,  -39.4975853
   1749,  -30.1456375,           5.,  -39.4975853
   1750,  -29.6456375,           5.,  -38.2564507
   1751,  -29.6456375,           7.,  -38.2564507
   1752,  -29.0716972,           7.,  -39.4975853
   1753,   -28.534729,           6.,  -39.4975853
   1754,  -29.0716972,           5.,  -39.4975853
   1755,  -28.6086674,           5.,  -38.2564507
   1756,  -28.6086674,           7.,  -38.2564507
   1757,  -27.9977608,           7.,  -39.4975853
   1758,  -27.4607887,           6.,  -39.4975853
   1759,  -27.9977608,           5.,  -39.4975853
   1760,  -27.6270409,           5.,  -38.2613945
   1761,  -27.6270409,           7.,  -38.2613945
   1762,  -33.9161377,           7.,  -41.9011917
   1763,  -33.2694283,           6.,  -41.9011917
   1764,  -33.9161377,           5.,  -41.9011917
   1765,  -34.5628433,           6.,  -41.9011917
   1766,  -34.1800423,           5.,  -40.7140694
   1767,  -34.1800423,           7.,  -40.7140694
   1768,  -33.0499573,           5.,  -40.6993866
   1769,  -33.0499573,           7.,  -40.6993866
   1770,  -32.6227226,           7.,  -41.9011917
   1771,  -31.9760189,           6.,  -41.9011917
   1772,  -32.6227226,           5.,  -41.9011917
   1773,  -31.8662815,           5.,  -40.6993866
   1774,  -31.8662815,           7.,  -40.6993866
   1775,  -31.3293114,           7.,  -41.9011917
   1776,  -30.6826057,           6.,  -41.9011917
   1777,  -31.3293114,           5.,  -41.9011917
   1778,  -30.6826057,           5.,  -40.6993866
   1779,  -30.6826057,           7.,  -40.6993866
   1780,  -30.0359001,           7.,  -41.9011917
   1781,  -29.3891945,           6.,  -41.9011917
   1782,  -30.0359001,           5.,  -41.9011917
   1783,  -29.4989319,           5.,  -40.6993866
   1784,  -29.4989319,           7.,  -40.6993866
   1785,  -28.7424889,           7.,  -41.9011917
   1786,  -28.0957813,           6.,  -41.9011917
   1787,  -28.7424889,           5.,  -41.9011917
   1788,  -28.3152542,           5.,  -40.6993866
   1789,  -28.3152542,           7.,  -40.6993866
   1790,  -27.4490757,           7.,  -41.9011917
   1791,  -26.8023701,           6.,  -41.9011917
   1792,  -27.4490757,           5.,  -41.9011917
   1793,  -27.1851692,           5.,  -40.7140694
   1794,  -27.1851692,           7.,  -40.7140694
   1795,  -34.8112679,           7.,  -44.1499786
   1796,  -33.9855347,           6.,  -44.1499786
   1797,  -34.8112679,           5.,  -44.1499786
   1798,   -35.637001,           6.,  -44.1499786
   1799,  -35.0497818,           5.,  -43.0495338
   1800,  -35.0497818,           7.,  -43.0495338
   1801,  -33.6274796,           5.,  -43.0255852
   1802,  -33.6274796,           7.,  -43.0255852
   1803,  -33.1598053,           7.,  -44.1499786
   1804,  -32.3340721,           6.,  -44.1499786
   1805,  -33.1598053,           5.,  -44.1499786
   1806,  -32.1550446,           5.,  -43.0255852
   1807,  -32.1550446,           7.,  -43.0255852
   1808,  -31.5083389,           7.,  -44.1499786
   1809,  -30.6826057,           6.,  -44.1499786
   1810,  -31.5083389,           5.,  -44.1499786
   1811,  -30.6826057,           5.,  -43.0255852
   1812,  -30.6826057,           7.,  -43.0255852
   1813,  -29.8568726,           7.,  -44.1499786
   1814,  -29.0311413,           6.,  -44.1499786
   1815,  -29.8568726,           5.,  -44.1499786
   1816,  -29.2101669,           5.,  -43.0255852
   1817,  -29.2101669,           7.,  -43.0255852
   1818,  -28.2054081,           7.,  -44.1499786
   1819,  -27.3796749,           6.,  -44.1499786
   1820,  -28.2054081,           5.,  -44.1499786
   1821,  -27.7377281,           5.,  -43.0255852
   1822,  -27.7377281,           7.,  -43.0255852
   1823,  -26.5539436,           7.,  -44.1499786
   1824,  -25.7282104,           6.,  -44.1499786
   1825,  -26.5539436,           5.,  -44.1499786
   1826,  -26.3154297,           5.,  -43.0495338
   1827,  -26.3154297,           7.,  -43.0495338
   1828,  -36.0244865,           7.,  -46.1726799
   1829,  -34.9561119,           6.,  -46.1726799
   1830,  -36.0244865,           5.,  -46.1726799
   1831,  -37.0928612,           6.,  -46.1726799
   1832,  -36.3198357,           5.,  -45.1937904
   1833,  -36.3198357,           7.,  -45.1937904
   1834,  -34.4708252,           5.,  -45.1613312
   1835,  -34.4708252,           7.,  -45.1613312
   1836,  -33.8877335,           7.,  -46.1726799
   1837,  -32.8193588,           6.,  -46.1726799
   1838,  -33.8877335,           5.,  -46.1726799
   1839,  -32.5767136,           5.,  -45.1613312
   1840,  -32.5767136,           7.,  -45.1613312
   1841,  -31.7509823,           7.,  -46.1726799
   1842,  -30.6826057,           6.,  -46.1726799
   1843,  -31.7509823,           5.,  -46.1726799
   1844,  -30.6826057,           5.,  -45.1613312
   1845,  -30.6826057,           7.,  -45.1613312
   1846,  -29.6142311,           7.,  -46.1726799
   1847,  -28.5458546,           6.,  -46.1726799
   1848,  -29.6142311,           5.,  -46.1726799
   1849,  -28.7884979,           5.,  -45.1613312
   1850,  -28.7884979,           7.,  -45.1613312
   1851,   -27.477478,           7.,  -46.1726799
   1852,  -26.4091015,           6.,  -46.1726799
   1853,   -27.477478,           5.,  -46.1726799
   1854,  -26.8943882,           5.,  -45.1613312
   1855,  -26.8943882,           7.,  -45.1613312
   1856,  -25.3407249,           7.,  -46.1726799
   1857,  -24.2723503,           6.,  -46.1726799
   1858,  -25.3407249,           5.,  -46.1726799
   1859,  -25.0453777,           5.,  -45.1937904
   1860,  -25.0453777,           7.,  -45.1937904
   1861,  -37.3284035,           7.,  -48.1802177
   1862,  -35.9992447,           6.,  -48.1802177
   1863,  -37.3284035,           5.,  -48.1802177
   1864,  -38.6575623,           6.,  -48.1802177
   1865,  -37.9007759,           5.,  -47.1565247
   1866,  -37.9007759,           7.,  -47.1565247
   1867,  -35.4776764,           5.,  -47.1764488
   1868,  -35.4776764,           7.,  -47.1764488
   1869,  -34.6700821,           7.,  -48.1802177
   1870,  -33.3409233,           6.,  -48.1802177
   1871,  -34.6700821,           5.,  -48.1802177
   1872,  -33.0801392,           5.,  -47.1764488
   1873,  -33.0801392,           7.,  -47.1764488
   1874,  -32.0117645,           7.,  -48.1802177
   1875,  -30.6826057,           6.,  -48.1802177
   1876,  -32.0117645,           5.,  -48.1802177
   1877,  -30.6826057,           5.,  -47.1764488
   1878,  -30.6826057,           7.,  -47.1764488
   1879,   -29.353447,           7.,  -48.1802177
   1880,  -28.0242863,           6.,  -48.1802177
   1881,   -29.353447,           5.,  -48.1802177
   1882,  -28.2850704,           5.,  -47.1764488
   1883,  -28.2850704,           7.,  -47.1764488
   1884,  -26.6951275,           7.,  -48.1802177
   1885,  -25.3659687,           6.,  -48.1802177
   1886,  -26.6951275,           5.,  -48.1802177
   1887,  -25.8875351,           5.,  -47.1764488
   1888,  -25.8875351,           7.,  -47.1764488
   1889,   -24.036808,           7.,  -48.1802177
   1890,  -22.7076492,           6.,  -48.1802177
   1891,   -24.036808,           5.,  -48.1802177
   1892,  -23.4644337,           5.,  -47.1565247
   1893,  -23.4644337,           7.,  -47.1565247
   1894,  -38.4554596,           7.,  -50.3364487
   1895,  -36.9008865,           6.,  -50.3364487
   1896,  -38.4554596,           5.,  -50.3364487
   1897,  -40.0100288,           6.,  -50.3364487
   1898,  -39.3612556,           5.,  -49.2411118
   1899,  -39.3612556,           7.,  -49.2411118
   1900,  -36.4500656,           5.,  -49.2583313
   1901,  -36.4500656,           7.,  -49.2583313
   1902,  -35.3463173,           7.,  -50.3364487
   1903,   -33.791748,           6.,  -50.3364487
   1904,  -35.3463173,           5.,  -50.3364487
   1905,  -33.5663376,           5.,  -49.2583313
   1906,  -33.5663376,           7.,  -49.2583313
   1907,   -32.237175,           7.,  -50.3364487
   1908,  -30.6826057,           6.,  -50.3364487
   1909,   -32.237175,           5.,  -50.3364487
   1910,  -30.6826057,           5.,  -49.2583313
   1911,  -30.6826057,           7.,  -49.2583313
   1912,  -29.1280365,           7.,  -50.3364487
   1913,  -27.5734653,           6.,  -50.3364487
   1914,  -29.1280365,           5.,  -50.3364487
   1915,  -27.7988758,           5.,  -49.2583313
   1916,  -27.7988758,           7.,  -49.2583313
   1917,  -26.0188942,           7.,  -50.3364487
   1918,   -24.464325,           6.,  -50.3364487
   1919,  -26.0188942,           5.,  -50.3364487
   1920,  -24.9151459,           5.,  -49.2583313
   1921,  -24.9151459,           7.,  -49.2583313
   1922,  -22.9097557,           7.,  -50.3364487
   1923,  -21.3551846,           6.,  -50.3364487
   1924,  -22.9097557,           5.,  -50.3364487
   1925,  -22.0039577,           5.,  -49.2411118
   1926,  -22.0039577,           7.,  -49.2411118
   1927,  -39.3939667,           7.,  -52.6190224
   1928,  -37.6516953,           6.,  -52.6190224
   1929,  -39.3939667,           5.,  -52.6190224
   1930,  -41.1362381,           6.,  -52.6190224
   1931,  -40.6021996,           5.,  -51.4633942
   1932,  -40.6021996,           7.,  -51.4633942
   1933,  -37.2762909,           5.,  -51.4777374
   1934,  -37.2762909,           7.,  -51.4777374
   1935,  -35.9094238,           7.,  -52.6190224
   1936,  -34.1671486,           6.,  -52.6190224
   1937,  -35.9094238,           5.,  -52.6190224
   1938,  -33.9794464,           5.,  -51.4777374
   1939,  -33.9794464,           7.,  -51.4777374
   1940,  -32.4248772,           7.,  -52.6190224
   1941,  -30.6826057,           6.,  -52.6190224
   1942,  -32.4248772,           5.,  -52.6190224
   1943,  -30.6826057,           5.,  -51.4777374
   1944,  -30.6826057,           7.,  -51.4777374
   1945,  -28.9403343,           7.,  -52.6190224
   1946,   -27.198061,           6.,  -52.6190224
   1947,  -28.9403343,           5.,  -52.6190224
   1948,  -27.3857632,           5.,  -51.4777374
   1949,  -27.3857632,           7.,  -51.4777374
   1950,  -25.4557896,           7.,  -52.6190224
   1951,  -23.7135181,           6.,  -52.6190224
   1952,  -25.4557896,           5.,  -52.6190224
   1953,  -24.0889206,           5.,  -51.4777374
   1954,  -24.0889206,           7.,  -51.4777374
   1955,  -21.9712448,           7.,  -52.6190224
   1956,  -20.2289734,           6.,  -52.6190224
   1957,  -21.9712448,           5.,  -52.6190224
   1958,  -20.7630119,           5.,  -51.4633942
   1959,  -20.7630119,           7.,  -51.4633942
   1960,   -40.134201,           7.,  -55.0042763
   1961,   -38.243885,           6.,  -55.0042763
   1962,   -40.134201,           5.,  -55.0042763
   1963,  -42.0245209,           6.,  -55.0042763
   1964,  -41.6107559,           5.,  -53.8003387
   1965,  -41.6107559,           7.,  -53.8003387
   1966,  -37.9477921,           5.,  -53.8116493
   1967,  -37.9477921,           7.,  -53.8116493
   1968,  -36.3535652,           7.,  -55.0042763
   1969,  -34.4632454,           6.,  -55.0042763
   1970,  -36.3535652,           5.,  -55.0042763
   1971,   -34.315197,           5.,  -53.8116493
   1972,   -34.315197,           7.,  -53.8116493
   1973,  -32.5729256,           7.,  -55.0042763
   1974,  -30.6826057,           6.,  -55.0042763
   1975,  -32.5729256,           5.,  -55.0042763
   1976,  -30.6826057,           5.,  -53.8116493
   1977,  -30.6826057,           7.,  -53.8116493
   1978,  -28.7922859,           7.,  -55.0042763
   1979,   -26.901968,           6.,  -55.0042763
   1980,  -28.7922859,           5.,  -55.0042763
   1981,  -27.0500145,           5.,  -53.8116493
   1982,  -27.0500145,           7.,  -53.8116493
   1983,  -25.0116482,           7.,  -55.0042763
   1984,  -23.1213284,           6.,  -55.0042763
   1985,  -25.0116482,           5.,  -55.0042763
   1986,  -23.4174232,           5.,  -53.8116493
   1987,  -23.4174232,           7.,  -53.8116493
   1988,  -21.2310104,           7.,  -55.0042763
   1989,  -19.3406906,           6.,  -55.0042763
   1990,  -21.2310104,           5.,  -55.0042763
   1991,  -19.7544556,           5.,  -53.8003387
   1992,  -19.7544556,           7.,  -53.8003387
   1993,  -40.6684914,           7.,  -57.4674911
   1994,  -38.6713142,           6.,  -57.4674911
   1995,  -40.6684914,           5.,  -57.4674911
   1996,  -42.6656685,           6.,  -57.4674911
   1997,  -42.3764648,           5.,  -56.2277184
   1998,  -42.3764648,           7.,  -56.2277184
   1999,  -38.4575996,           5.,  -56.2358856
   2000,  -38.4575996,           7.,  -56.2358856
   2001,  -36.6741371,           7.,  -57.4674911
   2002,    -34.67696,           6.,  -57.4674911
   2003,  -36.6741371,           5.,  -57.4674911
   2004,  -34.5701027,           5.,  -56.2358856
   2005,  -34.5701027,           7.,  -56.2358856
   2006,  -32.6797829,           7.,  -57.4674911
   2007,  -30.6826057,           6.,  -57.4674911
   2008,  -32.6797829,           5.,  -57.4674911
   2009,  -30.6826057,           5.,  -56.2358856
   2010,  -30.6826057,           7.,  -56.2358856
   2011,  -28.6854286,           7.,  -57.4674911
   2012,  -26.6882515,           6.,  -57.4674911
   2013,  -28.6854286,           5.,  -57.4674911
   2014,  -26.7951088,           5.,  -56.2358856
   2015,  -26.7951088,           7.,  -56.2358856
   2016,  -24.6910744,           7.,  -57.4674911
   2017,  -22.6938972,           6.,  -57.4674911
   2018,  -24.6910744,           5.,  -57.4674911
   2019,  -22.9076118,           5.,  -56.2358856
   2020,  -22.9076118,           7.,  -56.2358856
   2021,  -20.6967201,           7.,  -57.4674911
   2022,   -18.699543,           6.,  -57.4674911
   2023,  -20.6967201,           5.,  -57.4674911
   2024,  -18.9887486,           5.,  -56.2277184
   2025,  -18.9887486,           7.,  -56.2277184
   2026,  -40.9912949,           7.,  -59.9831314
   2027,  -38.9295578,           6.,  -59.9831314
   2028,  -40.9912949,           5.,  -59.9831314
   2029,  -43.0530357,           6.,  -59.9831314
   2030,  -42.8913879,           5.,  -58.7203789
   2031,  -42.8913879,           7.,  -58.7203789
   2032,  -38.8004379,           5.,  -58.7253113
   2033,  -38.8004379,           7.,  -58.7253113
   2034,  -36.8678207,           7.,  -59.9831314
   2035,  -34.8060837,           6.,  -59.9831314
   2036,  -36.8678207,           5.,  -59.9831314
   2037,  -34.7415237,           5.,  -58.7253113
   2038,  -34.7415237,           7.,  -58.7253113
   2039,  -32.7443466,           7.,  -59.9831314
   2040,  -30.6826057,           6.,  -59.9831314
   2041,  -32.7443466,           5.,  -59.9831314
   2042,  -30.6826057,           5.,  -58.7253113
   2043,  -30.6826057,           7.,  -58.7253113
   2044,  -28.6208687,           7.,  -59.9831314
   2045,  -26.5591297,           6.,  -59.9831314
   2046,  -28.6208687,           5.,  -59.9831314
   2047,  -26.6236916,           5.,  -58.7253113
   2048,  -26.6236916,           7.,  -58.7253113
   2049,  -24.4973907,           7.,  -59.9831314
   2050,  -22.4356518,           6.,  -59.9831314
   2051,  -24.4973907,           5.,  -59.9831314
   2052,  -22.5647736,           5.,  -58.7253113
   2053,  -22.5647736,           7.,  -58.7253113
   2054,  -20.3739128,           7.,  -59.9831314
   2055,  -18.3121758,           6.,  -59.9831314
   2056,  -20.3739128,           5.,  -59.9831314
   2057,  -18.4738235,           5.,  -58.7203789
   2058,  -18.4738235,           7.,  -58.7203789
   2059,  -41.0992737,           7.,  -62.5251198
   2060,  -39.0159378,           6.,  -62.5251198
   2061,  -41.0992737,           5.,  -62.5251198
   2062,  -43.1826057,           6.,  -62.5251198
   2063,  -43.1501923,           5.,  -61.2524757
   2064,  -43.1501923,           7.,  -61.2524757
   2065,  -38.9727478,           5.,  -61.2541275
   2066,  -38.9727478,           7.,  -61.2541275
   2067,  -36.9326057,           7.,  -62.5251198
   2068,  -34.8492737,           6.,  -62.5251198
   2069,  -36.9326057,           5.,  -62.5251198
   2070,  -34.8276787,           5.,  -61.2541275
   2071,  -34.8276787,           7.,  -61.2541275
   2072,  -32.7659378,           7.,  -62.5251198
   2073,  -30.6826057,           6.,  -62.5251198
   2074,  -32.7659378,           5.,  -62.5251198
   2075,  -30.6826057,           5.,  -61.2541275
   2076,  -30.6826057,           7.,  -61.2541275
   2077,  -28.5992737,           7.,  -62.5251198
   2078,  -26.5159397,           6.,  -62.5251198
   2079,  -28.5992737,           5.,  -62.5251198
   2080,  -26.5375347,           5.,  -61.2541275
   2081,  -26.5375347,           7.,  -61.2541275
   2082,  -24.4326057,           7.,  -62.5251198
   2083,  -22.3492718,           6.,  -62.5251198
   2084,  -24.4326057,           5.,  -62.5251198
   2085,  -22.3924618,           5.,  -61.2541275
   2086,  -22.3924618,           7.,  -61.2541275
   2087,  -20.2659378,           7.,  -62.5251198
   2088,  -18.1826057,           6.,  -62.5251198
   2089,  -20.2659378,           5.,  -62.5251198
   2090,  -18.2150192,           5.,  -61.2524757
   2091,  -18.2150192,           7.,  -61.2524757
   2092,  -41.0992737,           7.,  -65.1067886
   2093,  -39.0159378,           6.,  -65.1067886
   2094,  -41.0992737,           5.,  -65.1067886
   2095,  -43.1826057,           6.,  -65.1067886
   2096,  -43.1826057,           5.,  -63.8159523
   2097,  -43.1826057,           7.,  -63.8159523
   2098,  -39.0159378,           5.,  -63.8159561
   2099,  -39.0159378,           7.,  -63.8159561
   2100,  -36.9326057,           7.,  -65.1067886
   2101,  -34.8492737,           6.,  -65.1067886
   2102,  -36.9326057,           5.,  -65.1067886
   2103,  -34.8492737,           5.,  -63.8159561
   2104,  -34.8492737,           7.,  -63.8159561
   2105,  -32.7659378,           7.,  -65.1067886
   2106,  -30.6826057,           6.,  -65.1067886
   2107,  -32.7659378,           5.,  -65.1067886
   2108,  -30.6826057,           5.,  -63.8159561
   2109,  -30.6826057,           7.,  -63.8159561
   2110,  -28.5992737,           7.,  -65.1067886
   2111,  -26.5159397,           6.,  -65.1067886
   2112,  -28.5992737,           5.,  -65.1067886
   2113,  -26.5159397,           5.,  -63.8159561
   2114,  -26.5159397,           7.,  -63.8159561
   2115,  -24.4326057,           7.,  -65.1067886
   2116,  -22.3492718,           6.,  -65.1067886
   2117,  -24.4326057,           5.,  -65.1067886
   2118,  -22.3492718,           5.,  -63.8159561
   2119,  -22.3492718,           7.,  -63.8159561
   2120,  -20.2659378,           7.,  -65.1067886
   2121,  -18.1826057,           6.,  -65.1067886
   2122,  -20.2659378,           5.,  -65.1067886
   2123,  -18.1826057,           5.,  -63.8159523
   2124,  -18.1826057,           7.,  -63.8159523
   2125,  -41.0992737,           7.,  -67.6884537
   2126,  -39.0159378,           6.,  -67.6884537
   2127,  -41.0992737,           5.,  -67.6884537
   2128,  -43.1826057,           6.,  -67.6884537
   2129,  -43.1826057,           5.,  -66.3976212
   2130,  -43.1826057,           7.,  -66.3976212
   2131,  -39.0159378,           5.,  -66.3976212
   2132,  -39.0159378,           7.,  -66.3976212
   2133,  -36.9326057,           7.,  -67.6884537
   2134,  -34.8492737,           6.,  -67.6884537
   2135,  -36.9326057,           5.,  -67.6884537
   2136,  -34.8492737,           5.,  -66.3976212
   2137,  -34.8492737,           7.,  -66.3976212
   2138,  -32.7659378,           7.,  -67.6884537
   2139,  -30.6826057,           6.,  -67.6884537
   2140,  -32.7659378,           5.,  -67.6884537
   2141,  -30.6826057,           5.,  -66.3976212
   2142,  -30.6826057,           7.,  -66.3976212
   2143,  -28.5992737,           7.,  -67.6884537
   2144,  -26.5159397,           6.,  -67.6884537
   2145,  -28.5992737,           5.,  -67.6884537
   2146,  -26.5159397,           5.,  -66.3976212
   2147,  -26.5159397,           7.,  -66.3976212
   2148,  -24.4326057,           7.,  -67.6884537
   2149,  -22.3492718,           6.,  -67.6884537
   2150,  -24.4326057,           5.,  -67.6884537
   2151,  -22.3492718,           5.,  -66.3976212
   2152,  -22.3492718,           7.,  -66.3976212
   2153,  -20.2659378,           7.,  -67.6884537
   2154,  -18.1826057,           6.,  -67.6884537
   2155,  -20.2659378,           5.,  -67.6884537
   2156,  -18.1826057,           5.,  -66.3976212
   2157,  -18.1826057,           7.,  -66.3976212
   2158,  -41.0992737,           7.,  -70.2701187
   2159,  -39.0159378,           6.,  -70.2701187
   2160,  -41.0992737,           5.,  -70.2701187
   2161,  -43.1826057,           6.,  -70.2701187
   2162,  -43.1826057,           5.,  -68.9792862
   2163,  -43.1826057,           7.,  -68.9792862
   2164,  -39.0159378,           5.,  -68.9792862
   2165,  -39.0159378,           7.,  -68.9792862
   2166,  -36.9326057,           7.,  -70.2701187
   2167,  -34.8492737,           6.,  -70.2701187
   2168,  -36.9326057,           5.,  -70.2701187
   2169,  -34.8492737,           5.,  -68.9792862
   2170,  -34.8492737,           7.,  -68.9792862
   2171,  -32.7659378,           7.,  -70.2701187
   2172,  -30.6826057,           6.,  -70.2701187
   2173,  -32.7659378,           5.,  -70.2701187
   2174,  -30.6826057,           5.,  -68.9792862
   2175,  -30.6826057,           7.,  -68.9792862
   2176,  -28.5992737,           7.,  -70.2701187
   2177,  -26.5159397,           6.,  -70.2701187
   2178,  -28.5992737,           5.,  -70.2701187
   2179,  -26.5159397,           5.,  -68.9792862
   2180,  -26.5159397,           7.,  -68.9792862
   2181,  -24.4326057,           7.,  -70.2701187
   2182,  -22.3492718,           6.,  -70.2701187
   2183,  -24.4326057,           5.,  -70.2701187
   2184,  -22.3492718,           5.,  -68.9792862
   2185,  -22.3492718,           7.,  -68.9792862
   2186,  -20.2659378,           7.,  -70.2701187
   2187,  -18.1826057,           6.,  -70.2701187
   2188,  -20.2659378,           5.,  -70.2701187
   2189,  -18.1826057,           5.,  -68.9792862
   2190,  -18.1826057,           7.,  -68.9792862
   2191,  -41.0992737,           7.,  -72.8517838
   2192,  -39.0159378,           6.,  -72.8517838
   2193,  -41.0992737,           5.,  -72.8517838
   2194,  -43.1826057,           6.,  -72.8517838
   2195,  -43.1826057,           5.,  -71.5609512
   2196,  -43.1826057,           7.,  -71.5609512
   2197,  -39.0159378,           5.,  -71.5609512
   2198,  -39.0159378,           7.,  -71.5609512
   2199,  -36.9326057,           7.,  -72.8517838
   2200,  -34.8492737,           6.,  -72.8517838
   2201,  -36.9326057,           5.,  -72.8517838
   2202,  -34.8492737,           5.,  -71.5609512
   2203,  -34.8492737,           7.,  -71.5609512
   2204,  -32.7659378,           7.,  -72.8517838
   2205,  -30.6826057,           6.,  -72.8517838
   2206,  -32.7659378,           5.,  -72.8517838
   2207,  -30.6826057,           5.,  -71.5609512
   2208,  -30.6826057,           7.,  -71.5609512
   2209,  -28.5992737,           7.,  -72.8517838
   2210,  -26.5159397,           6.,  -72.8517838
   2211,  -28.5992737,           5.,  -72.8517838
   2212,  -26.5159397,           5.,  -71.5609512
   2213,  -26.5159397,           7.,  -71.5609512
   2214,  -24.4326057,           7.,  -72.8517838
   2215,  -22.3492718,           6.,  -72.8517838
   2216,  -24.4326057,           5.,  -72.8517838
   2217,  -22.3492718,           5.,  -71.5609512
   2218,  -22.3492718,           7.,  -71.5609512
   2219,  -20.2659378,           7.,  -72.8517838
   2220,  -18.1826057,           6.,  -72.8517838
   2221,  -20.2659378,           5.,  -72.8517838
   2222,  -18.1826057,           5.,  -71.5609512
   2223,  -18.1826057,           7.,  -71.5609512
   2224,  -41.0992737,           7.,  -75.4334488
   2225,  -39.0159378,           6.,  -75.4334488
   2226,  -41.0992737,           5.,  -75.4334488
   2227,  -43.1826057,           6.,  -75.4334488
   2228,  -43.1826057,           5.,  -74.1426163
   2229,  -43.1826057,           7.,  -74.1426163
   2230,  -39.0159378,           5.,  -74.1426163
   2231,  -39.0159378,           7.,  -74.1426163
   2232,  -36.9326057,           7.,  -75.4334488
   2233,  -34.8492737,           6.,  -75.4334488
   2234,  -36.9326057,           5.,  -75.4334488
   2235,  -34.8492737,           5.,  -74.1426163
   2236,  -34.8492737,           7.,  -74.1426163
   2237,  -32.7659378,           7.,  -75.4334488
   2238,  -30.6826057,           6.,  -75.4334488
   2239,  -32.7659378,           5.,  -75.4334488
   2240,  -30.6826057,           5.,  -74.1426163
   2241,  -30.6826057,           7.,  -74.1426163
   2242,  -28.5992737,           7.,  -75.4334488
   2243,  -26.5159397,           6.,  -75.4334488
   2244,  -28.5992737,           5.,  -75.4334488
   2245,  -26.5159397,           5.,  -74.1426163
   2246,  -26.5159397,           7.,  -74.1426163
   2247,  -24.4326057,           7.,  -75.4334488
   2248,  -22.3492718,           6.,  -75.4334488
   2249,  -24.4326057,           5.,  -75.4334488
   2250,  -22.3492718,           5.,  -74.1426163
   2251,  -22.3492718,           7.,  -74.1426163
   2252,  -20.2659378,           7.,  -75.4334488
   2253,  -18.1826057,           6.,  -75.4334488
   2254,  -20.2659378,           5.,  -75.4334488
   2255,  -18.1826057,           5.,  -74.1426163
   2256,  -18.1826057,           7.,  -74.1426163
   2257,  -41.0992737,           7.,  -78.0151215
   2258,  -39.0159378,           6.,  -78.0151215
   2259,  -41.0992737,           5.,  -78.0151215
   2260,  -43.1826057,           6.,  -78.0151215
   2261,  -43.1826057,           5.,  -76.7242813
   2262,  -43.1826057,           7.,  -76.7242813
   2263,  -39.0159378,           5.,  -76.7242889
   2264,  -39.0159378,           7.,  -76.7242889
   2265,  -36.9326057,           7.,  -78.0151215
   2266,  -34.8492737,           6.,  -78.0151215
   2267,  -36.9326057,           5.,  -78.0151215
   2268,  -34.8492737,           5.,  -76.7242889
   2269,  -34.8492737,           7.,  -76.7242889
   2270,  -32.7659378,           7.,  -78.0151215
   2271,  -30.6826057,           6.,  -78.0151215
   2272,  -32.7659378,           5.,  -78.0151215
   2273,  -30.6826057,           5.,  -76.7242889
   2274,  -30.6826057,           7.,  -76.7242889
   2275,  -28.5992737,           7.,  -78.0151215
   2276,  -26.5159397,           6.,  -78.0151215
   2277,  -28.5992737,           5.,  -78.0151215
   2278,  -26.5159397,           5.,  -76.7242889
   2279,  -26.5159397,           7.,  -76.7242889
   2280,  -24.4326057,           7.,  -78.0151215
   2281,  -22.3492718,           6.,  -78.0151215
   2282,  -24.4326057,           5.,  -78.0151215
   2283,  -22.3492718,           5.,  -76.7242889
   2284,  -22.3492718,           7.,  -76.7242889
   2285,  -20.2659397,           7.,  -78.0151215
   2286,  -18.1826057,           6.,  -78.0151215
   2287,  -20.2659397,           5.,  -78.0151215
   2288,  -18.1826057,           5.,  -76.7242813
   2289,  -18.1826057,           7.,  -76.7242813
*Element, type=C3D20RH
  1,   15,   16,   18,   17,    1,    2,    4,    3,  690,  689,  688,  687,  691,  692,  693,
      694,  696,  695,  697,  698
  2,   17,   18,   20,   19,    3,    4,    6,    5,  688,  701,  700,  699,  693,  702,  703,
      704,  698,  697,  705,  706
  3,   19,   20,   22,   21,    5,    6,    8,    7,  700,  709,  708,  707,  703,  710,  711,
      712,  706,  705,  713,  714
  4,   21,   22,   24,   23,    7,    8,   10,    9,  708,  717,  716,  715,  711,  718,  719,
      720,  714,  713,  721,  722
  5,   23,   24,   26,   25,    9,   10,   12,   11,  716,  725,  724,  723,  719,  726,  727,
      728,  722,  721,  729,  730
  6,   25,   26,   28,   27,   11,   12,   14,   13,  724,  733,  732,  731,  727,  734,  735,
      736,  730,  729,  737,  738
  7,   29,   30,   32,   31,   15,   16,   18,   17,  742,  741,  740,  739,  690,  689,  688,
      687,  744,  743,  745,  746
  8,   31,   32,   34,   33,   17,   18,   20,   19,  740,  749,  748,  747,  688,  701,  700,
      699,  746,  745,  750,  751
  9,   33,   34,   36,   35,   19,   20,   22,   21,  748,  754,  753,  752,  700,  709,  708,
      707,  751,  750,  755,  756
 10,   35,   36,   38,   37,   21,   22,   24,   23,  753,  759,  758,  757,  708,  717,  716,
      715,  756,  755,  760,  761
 11,   37,   38,   40,   39,   23,   24,   26,   25,  758,  764,  763,  762,  716,  725,  724,
      723,  761,  760,  765,  766
 12,   39,   40,   42,   41,   25,   26,   28,   27,  763,  769,  768,  767,  724,  733,  732,
      731,  766,  765,  770,  771
 13,   43,   44,   46,   45,   29,   30,   32,   31,  775,  774,  773,  772,  742,  741,  740,
      739,  777,  776,  778,  779
 14,   45,   46,   48,   47,   31,   32,   34,   33,  773,  782,  781,  780,  740,  749,  748,
      747,  779,  778,  783,  784
 15,   47,   48,   50,   49,   33,   34,   36,   35,  781,  787,  786,  785,  748,  754,  753,
      752,  784,  783,  788,  789
 16,   49,   50,   52,   51,   35,   36,   38,   37,  786,  792,  791,  790,  753,  759,  758,
      757,  789,  788,  793,  794
 17,   51,   52,   54,   53,   37,   38,   40,   39,  791,  797,  796,  795,  758,  764,  763,
      762,  794,  793,  798,  799
 18,   53,   54,   56,   55,   39,   40,   42,   41,  796,  802,  801,  800,  763,  769,  768,
      767,  799,  798,  803,  804
 19,   57,   58,   60,   59,   43,   44,   46,   45,  808,  807,  806,  805,  775,  774,  773,
      772,  810,  809,  811,  812
 20,   59,   60,   62,   61,   45,   46,   48,   47,  806,  815,  814,  813,  773,  782,  781,
      780,  812,  811,  816,  817
 21,   61,   62,   64,   63,   47,   48,   50,   49,  814,  820,  819,  818,  781,  787,  786,
      785,  817,  816,  821,  822
 22,   63,   64,   66,   65,   49,   50,   52,   51,  819,  825,  824,  823,  786,  792,  791,
      790,  822,  821,  826,  827
 23,   65,   66,   68,   67,   51,   52,   54,   53,  824,  830,  829,  828,  791,  797,  796,
      795,  827,  826,  831,  832
 24,   67,   68,   70,   69,   53,   54,   56,   55,  829,  835,  834,  833,  796,  802,  801,
      800,  832,  831,  836,  837
 25,   71,   72,   74,   73,   57,   58,   60,   59,  841,  840,  839,  838,  808,  807,  806,
      805,  843,  842,  844,  845
 26,   73,   74,   76,   75,   59,   60,   62,   61,  839,  848,  847,  846,  806,  815,  814,
      813,  845,  844,  849,  850
 27,   75,   76,   78,   77,   61,   62,   64,   63,  847,  853,  852,  851,  814,  820,  819,
      818,  850,  849,  854,  855
 28,   77,   78,   80,   79,   63,   64,   66,   65,  852,  858,  857,  856,  819,  825,  824,
      823,  855,  854,  859,  860
 29,   79,   80,   82,   81,   65,   66,   68,   67,  857,  863,  862,  861,  824,  830,  829,
      828,  860,  859,  864,  865
 30,   81,   82,   84,   83,   67,   68,   70,   69,  862,  868,  867,  866,  829,  835,  834,
      833,  865,  864,  869,  870
 31,   85,   86,   88,   87,   71,   72,   74,   73,  874,  873,  872,  871,  841,  840,  839,
      838,  876,  875,  877,  878
 32,   87,   88,   90,   89,   73,   74,   76,   75,  872,  881,  880,  879,  839,  848,  847,
      846,  878,  877,  882,  883
 33,   89,   90,   92,   91,   75,   76,   78,   77,  880,  886,  885,  884,  847,  853,  852,
      851,  883,  882,  887,  888
 34,   91,   92,   94,   93,   77,   78,   80,   79,  885,  891,  890,  889,  852,  858,  857,
      856,  888,  887,  892,  893
 35,   93,   94,   96,   95,   79,   80,   82,   81,  890,  896,  895,  894,  857,  863,  862,
      861,  893,  892,  897,  898
 36,   95,   96,   98,   97,   81,   82,   84,   83,  895,  901,  900,  899,  862,  868,  867,
      866,  898,  897,  902,  903
 37,   99,  100,  102,  101,   85,   86,   88,   87,  907,  906,  905,  904,  874,  873,  872,
      871,  909,  908,  910,  911
 38,  101,  102,  104,  103,   87,   88,   90,   89,  905,  914,  913,  912,  872,  881,  880,
      879,  911,  910,  915,  916
 39,  103,  104,  106,  105,   89,   90,   92,   91,  913,  919,  918,  917,  880,  886,  885,
      884,  916,  915,  920,  921
 40,  105,  106,  108,  107,   91,   92,   94,   93,  918,  924,  923,  922,  885,  891,  890,
      889,  921,  920,  925,  926
 41,  107,  108,  110,  109,   93,   94,   96,   95,  923,  929,  928,  927,  890,  896,  895,
      894,  926,  925,  930,  931
 42,  109,  110,  112,  111,   95,   96,   98,   97,  928,  934,  933,  932,  895,  901,  900,
      899,  931,  930,  935,  936
 43,  113,  114,  116,  115,   99,  100,  102,  101,  940,  939,  938,  937,  907,  906,  905,
      904,  942,  941,  943,  944
 44,  115,  116,  118,  117,  101,  102,  104,  103,  938,  947,  946,  945,  905,  914,  913,
      912,  944,  943,  948,  949
 45,  117,  118,  120,  119,  103,  104,  106,  105,  946,  952,  951,  950,  913,  919,  918,
      917,  949,  948,  953,  954
 46,  119,  120,  122,  121,  105,  106,  108,  107,  951,  957,  956,  955,  918,  924,  923,
      922,  954,  953,  958,  959
 47,  121,  122,  124,  123,  107,  108,  110,  109,  956,  962,  961,  960,  923,  929,  928,
      927,  959,  958,  963,  964
 48,  123,  124,  126,  125,  109,  110,  112,  111,  961,  967,  966,  965,  928,  934,  933,
      932,  964,  963,  968,  969
 49,  127,  128,  130,  129,  113,  114,  116,  115,  973,  972,  971,  970,  940,  939,  938,
      937,  975,  974,  976,  977
 50,  129,  130,  132,  131,  115,  116,  118,  117,  971,  980,  979,  978,  938,  947,  946,
      945,  977,  976,  981,  982
 51,  131,  132,  134,  133,  117,  118,  120,  119,  979,  985,  984,  983,  946,  952,  951,
      950,  982,  981,  986,  987
 52,  133,  134,  136,  135,  119,  120,  122,  121,  984,  990,  989,  988,  951,  957,  956,
      955,  987,  986,  991,  992
 53,  135,  136,  138,  137,  121,  122,  124,  123,  989,  995,  994,  993,  956,  962,  961,
      960,  992,  991,  996,  997
 54,  137,  138,  140,  139,  123,  124,  126,  125,  994, 1000,  999,  998,  961,  967,  966,
      965,  997,  996, 1001, 1002
 55,  141,  142,  144,  143,  127,  128,  130,  129, 1006, 1005, 1004, 1003,  973,  972,  971,
      970, 1008, 1007, 1009, 1010
 56,  143,  144,  146,  145,  129,  130,  132,  131, 1004, 1013, 1012, 1011,  971,  980,  979,
      978, 1010, 1009, 1014, 1015
 57,  145,  146,  148,  147,  131,  132,  134,  133, 1012, 1018, 1017, 1016,  979,  985,  984,
      983, 1015, 1014, 1019, 1020
 58,  147,  148,  150,  149,  133,  134,  136,  135, 1017, 1023, 1022, 1021,  984,  990,  989,
      988, 1020, 1019, 1024, 1025
 59,  149,  150,  152,  151,  135,  136,  138,  137, 1022, 1028, 1027, 1026,  989,  995,  994,
      993, 1025, 1024, 1029, 1030
 60,  151,  152,  154,  153,  137,  138,  140,  139, 1027, 1033, 1032, 1031,  994, 1000,  999,
      998, 1030, 1029, 1034, 1035
 61,  155,  156,  158,  157,  141,  142,  144,  143, 1039, 1038, 1037, 1036, 1006, 1005, 1004,
     1003, 1041, 1040, 1042, 1043
 62,  157,  158,  160,  159,  143,  144,  146,  145, 1037, 1046, 1045, 1044, 1004, 1013, 1012,
     1011, 1043, 1042, 1047, 1048
 63,  159,  160,  162,  161,  145,  146,  148,  147, 1045, 1051, 1050, 1049, 1012, 1018, 1017,
     1016, 1048, 1047, 1052, 1053
 64,  161,  162,  164,  163,  147,  148,  150,  149, 1050, 1056, 1055, 1054, 1017, 1023, 1022,
     1021, 1053, 1052, 1057, 1058
 65,  163,  164,  166,  165,  149,  150,  152,  151, 1055, 1061, 1060, 1059, 1022, 1028, 1027,
     1026, 1058, 1057, 1062, 1063
 66,  165,  166,  168,  167,  151,  152,  154,  153, 1060, 1066, 1065, 1064, 1027, 1033, 1032,
     1031, 1063, 1062, 1067, 1068
 67,  169,  170,  172,  171,  155,  156,  158,  157, 1072, 1071, 1070, 1069, 1039, 1038, 1037,
     1036, 1074, 1073, 1075, 1076
 68,  171,  172,  174,  173,  157,  158,  160,  159, 1070, 1079, 1078, 1077, 1037, 1046, 1045,
     1044, 1076, 1075, 1080, 1081
 69,  173,  174,  176,  175,  159,  160,  162,  161, 1078, 1084, 1083, 1082, 1045, 1051, 1050,
     1049, 1081, 1080, 1085, 1086
 70,  175,  176,  178,  177,  161,  162,  164,  163, 1083, 1089, 1088, 1087, 1050, 1056, 1055,
     1054, 1086, 1085, 1090, 1091
 71,  177,  178,  180,  179,  163,  164,  166,  165, 1088, 1094, 1093, 1092, 1055, 1061, 1060,
     1059, 1091, 1090, 1095, 1096
 72,  179,  180,  182,  181,  165,  166,  168,  167, 1093, 1099, 1098, 1097, 1060, 1066, 1065,
     1064, 1096, 1095, 1100, 1101
 73,  183,  184,  186,  185,  169,  170,  172,  171, 1105, 1104, 1103, 1102, 1072, 1071, 1070,
     1069, 1107, 1106, 1108, 1109
 74,  185,  186,  188,  187,  171,  172,  174,  173, 1103, 1112, 1111, 1110, 1070, 1079, 1078,
     1077, 1109, 1108, 1113, 1114
 75,  187,  188,  190,  189,  173,  174,  176,  175, 1111, 1117, 1116, 1115, 1078, 1084, 1083,
     1082, 1114, 1113, 1118, 1119
 76,  189,  190,  192,  191,  175,  176,  178,  177, 1116, 1122, 1121, 1120, 1083, 1089, 1088,
     1087, 1119, 1118, 1123, 1124
 77,  191,  192,  194,  193,  177,  178,  180,  179, 1121, 1127, 1126, 1125, 1088, 1094, 1093,
     1092, 1124, 1123, 1128, 1129
 78,  193,  194,  196,  195,  179,  180,  182,  181, 1126, 1132, 1131, 1130, 1093, 1099, 1098,
     1097, 1129, 1128, 1133, 1134
 79,  197,  198,  200,  199,  183,  184,  186,  185, 1138, 1137, 1136, 1135, 1105, 1104, 1103,
     1102, 1140, 1139, 1141, 1142
 80,  199,  200,  202,  201,  185,  186,  188,  187, 1136, 1145, 1144, 1143, 1103, 1112, 1111,
     1110, 1142, 1141, 1146, 1147
 81,  201,  202,  204,  203,  187,  188,  190,  189, 1144, 1150, 1149, 1148, 1111, 1117, 1116,
     1115, 1147, 1146, 1151, 1152
 82,  203,  204,  206,  205,  189,  190,  192,  191, 1149, 1155, 1154, 1153, 1116, 1122, 1121,
     1120, 1152, 1151, 1156, 1157
 83,  205,  206,  208,  207,  191,  192,  194,  193, 1154, 1160, 1159, 1158, 1121, 1127, 1126,
     1125, 1157, 1156, 1161, 1162
 84,  207,  208,  210,  209,  193,  194,  196,  195, 1159, 1165, 1164, 1163, 1126, 1132, 1131,
     1130, 1162, 1161, 1166, 1167
 85,  211,  212,  214,  213,  197,  198,  200,  199, 1171, 1170, 1169, 1168, 1138, 1137, 1136,
     1135, 1173, 1172, 1174, 1175
 86,  213,  214,  216,  215,  199,  200,  202,  201, 1169, 1178, 1177, 1176, 1136, 1145, 1144,
     1143, 1175, 1174, 1179, 1180
 87,  215,  216,  218,  217,  201,  202,  204,  203, 1177, 1183, 1182, 1181, 1144, 1150, 1149,
     1148, 1180, 1179, 1184, 1185
 88,  217,  218,  220,  219,  203,  204,  206,  205, 1182, 1188, 1187, 1186, 1149, 1155, 1154,
     1153, 1185, 1184, 1189, 1190
 89,  219,  220,  222,  221,  205,  206,  208,  207, 1187, 1193, 1192, 1191, 1154, 1160, 1159,
     1158, 1190, 1189, 1194, 1195
 90,  221,  222,  224,  223,  207,  208,  210,  209, 1192, 1198, 1197, 1196, 1159, 1165, 1164,
     1163, 1195, 1194, 1199, 1200
 91,  225,  226,  228,  227,  211,  212,  214,  213, 1204, 1203, 1202, 1201, 1171, 1170, 1169,
     1168, 1206, 1205, 1207, 1208
 92,  227,  228,  230,  229,  213,  214,  216,  215, 1202, 1211, 1210, 1209, 1169, 1178, 1177,
     1176, 1208, 1207, 1212, 1213
 93,  229,  230,  232,  231,  215,  216,  218,  217, 1210, 1216, 1215, 1214, 1177, 1183, 1182,
     1181, 1213, 1212, 1217, 1218
 94,  231,  232,  234,  233,  217,  218,  220,  219, 1215, 1221, 1220, 1219, 1182, 1188, 1187,
     1186, 1218, 1217, 1222, 1223
 95,  233,  234,  236,  235,  219,  220,  222,  221, 1220, 1226, 1225, 1224, 1187, 1193, 1192,
     1191, 1223, 1222, 1227, 1228
 96,  235,  236,  238,  237,  221,  222,  224,  223, 1225, 1231, 1230, 1229, 1192, 1198, 1197,
     1196, 1228, 1227, 1232, 1233
 97,  239,  240,  242,  241,  225,  226,  228,  227, 1237, 1236, 1235, 1234, 1204, 1203, 1202,
     1201, 1239, 1238, 1240, 1241
 98,  241,  242,  244,  243,  227,  228,  230,  229, 1235, 1244, 1243, 1242, 1202, 1211, 1210,
     1209, 1241, 1240, 1245, 1246
 99,  243,  244,  246,  245,  229,  230,  232,  231, 1243, 1249, 1248, 1247, 1210, 1216, 1215,
     1214, 1246, 1245, 1250, 1251
100,  245,  246,  248,  247,  231,  232,  234,  233, 1248, 1254, 1253, 1252, 1215, 1221, 1220,
     1219, 1251, 1250, 1255, 1256
101,  247,  248,  250,  249,  233,  234,  236,  235, 1253, 1259, 1258, 1257, 1220, 1226, 1225,
     1224, 1256, 1255, 1260, 1261
102,  249,  250,  252,  251,  235,  236,  238,  237, 1258, 1264, 1263, 1262, 1225, 1231, 1230,
     1229, 1261, 1260, 1265, 1266
103,  253,  254,  256,  255,  239,  240,  242,  241, 1270, 1269, 1268, 1267, 1237, 1236, 1235,
     1234, 1272, 1271, 1273, 1274
104,  255,  256,  258,  257,  241,  242,  244,  243, 1268, 1277, 1276, 1275, 1235, 1244, 1243,
     1242, 1274, 1273, 1278, 1279
105,  257,  258,  260,  259,  243,  244,  246,  245, 1276, 1282, 1281, 1280, 1243, 1249, 1248,
     1247, 1279, 1278, 1283, 1284
106,  259,  260,  262,  261,  245,  246,  248,  247, 1281, 1287, 1286, 1285, 1248, 1254, 1253,
     1252, 1284, 1283, 1288, 1289
107,  261,  262,  264,  263,  247,  248,  250,  249, 1286, 1292, 1291, 1290, 1253, 1259, 1258,
     1257, 1289, 1288, 1293, 1294
108,  263,  264,  266,  265,  249,  250,  252,  251, 1291, 1297, 1296, 1295, 1258, 1264, 1263,
     1262, 1294, 1293, 1298, 1299
109,  267,  268,  270,  269,  253,  254,  256,  255, 1303, 1302, 1301, 1300, 1270, 1269, 1268,
     1267, 1305, 1304, 1306, 1307
110,  269,  270,  272,  271,  255,  256,  258,  257, 1301, 1310, 1309, 1308, 1268, 1277, 1276,
     1275, 1307, 1306, 1311, 1312
111,  271,  272,  274,  273,  257,  258,  260,  259, 1309, 1315, 1314, 1313, 1276, 1282, 1281,
     1280, 1312, 1311, 1316, 1317
112,  273,  274,  276,  275,  259,  260,  262,  261, 1314, 1320, 1319, 1318, 1281, 1287, 1286,
     1285, 1317, 1316, 1321, 1322
113,  275,  276,  278,  277,  261,  262,  264,  263, 1319, 1325, 1324, 1323, 1286, 1292, 1291,
     1290, 1322, 1321, 1326, 1327
114,  277,  278,  280,  279,  263,  264,  266,  265, 1324, 1330, 1329, 1328, 1291, 1297, 1296,
     1295, 1327, 1326, 1331, 1332
115,  281,  282,  284,  283,  267,  268,  270,  269, 1336, 1335, 1334, 1333, 1303, 1302, 1301,
     1300, 1338, 1337, 1339, 1340
116,  283,  284,  286,  285,  269,  270,  272,  271, 1334, 1343, 1342, 1341, 1301, 1310, 1309,
     1308, 1340, 1339, 1344, 1345
117,  285,  286,  288,  287,  271,  272,  274,  273, 1342, 1348, 1347, 1346, 1309, 1315, 1314,
     1313, 1345, 1344, 1349, 1350
118,  287,  288,  290,  289,  273,  274,  276,  275, 1347, 1353, 1352, 1351, 1314, 1320, 1319,
     1318, 1350, 1349, 1354, 1355
119,  289,  290,  292,  291,  275,  276,  278,  277, 1352, 1358, 1357, 1356, 1319, 1325, 1324,
     1323, 1355, 1354, 1359, 1360
120,  291,  292,  294,  293,  277,  278,  280,  279, 1357, 1363, 1362, 1361, 1324, 1330, 1329,
     1328, 1360, 1359, 1364, 1365
121,  295,  296,  298,  297,  281,  282,  284,  283, 1369, 1368, 1367, 1366, 1336, 1335, 1334,
     1333, 1371, 1370, 1372, 1373
122,  297,  298,  300,  299,  283,  284,  286,  285, 1367, 1376, 1375, 1374, 1334, 1343, 1342,
     1341, 1373, 1372, 1377, 1378
123,  299,  300,  302,  301,  285,  286,  288,  287, 1375, 1381, 1380, 1379, 1342, 1348, 1347,
     1346, 1378, 1377, 1382, 1383
124,  301,  302,  304,  303,  287,  288,  290,  289, 1380, 1386, 1385, 1384, 1347, 1353, 1352,
     1351, 1383, 1382, 1387, 1388
125,  303,  304,  306,  305,  289,  290,  292,  291, 1385, 1391, 1390, 1389, 1352, 1358, 1357,
     1356, 1388, 1387, 1392, 1393
126,  305,  306,  308,  307,  291,  292,  294,  293, 1390, 1396, 1395, 1394, 1357, 1363, 1362,
     1361, 1393, 1392, 1397, 1398
127,  309,  310,  312,  311,  295,  296,  298,  297, 1402, 1401, 1400, 1399, 1369, 1368, 1367,
     1366, 1404, 1403, 1405, 1406
128,  311,  312,  314,  313,  297,  298,  300,  299, 1400, 1409, 1408, 1407, 1367, 1376, 1375,
     1374, 1406, 1405, 1410, 1411
129,  313,  314,  316,  315,  299,  300,  302,  301, 1408, 1414, 1413, 1412, 1375, 1381, 1380,
     1379, 1411, 1410, 1415, 1416
130,  315,  316,  318,  317,  301,  302,  304,  303, 1413, 1419, 1418, 1417, 1380, 1386, 1385,
     1384, 1416, 1415, 1420, 1421
131,  317,  318,  320,  319,  303,  304,  306,  305, 1418, 1424, 1423, 1422, 1385, 1391, 1390,
     1389, 1421, 1420, 1425, 1426
132,  319,  320,  322,  321,  305,  306,  308,  307, 1423, 1429, 1428, 1427, 1390, 1396, 1395,
     1394, 1426, 1425, 1430, 1431
133,  323,  324,  326,  325,  309,  310,  312,  311, 1435, 1434, 1433, 1432, 1402, 1401, 1400,
     1399, 1437, 1436, 1438, 1439
134,  325,  326,  328,  327,  311,  312,  314,  313, 1433, 1442, 1441, 1440, 1400, 1409, 1408,
     1407, 1439, 1438, 1443, 1444
135,  327,  328,  330,  329,  313,  314,  316,  315, 1441, 1447, 1446, 1445, 1408, 1414, 1413,
     1412, 1444, 1443, 1448, 1449
136,  329,  330,  332,  331,  315,  316,  318,  317, 1446, 1452, 1451, 1450, 1413, 1419, 1418,
     1417, 1449, 1448, 1453, 1454
137,  331,  332,  334,  333,  317,  318,  320,  319, 1451, 1457, 1456, 1455, 1418, 1424, 1423,
     1422, 1454, 1453, 1458, 1459
138,  333,  334,  336,  335,  319,  320,  322,  321, 1456, 1462, 1461, 1460, 1423, 1429, 1428,
     1427, 1459, 1458, 1463, 1464
139,  337,  338,  340,  339,  323,  324,  326,  325, 1468, 1467, 1466, 1465, 1435, 1434, 1433,
     1432, 1470, 1469, 1471, 1472
140,  339,  340,  342,  341,  325,  326,  328,  327, 1466, 1475, 1474, 1473, 1433, 1442, 1441,
     1440, 1472, 1471, 1476, 1477
141,  341,  342,  344,  343,  327,  328,  330,  329, 1474, 1480, 1479, 1478, 1441, 1447, 1446,
     1445, 1477, 1476, 1481, 1482
142,  343,  344,  346,  345,  329,  330,  332,  331, 1479, 1485, 1484, 1483, 1446, 1452, 1451,
     1450, 1482, 1481, 1486, 1487
143,  345,  346,  348,  347,  331,  332,  334,  333, 1484, 1490, 1489, 1488, 1451, 1457, 1456,
     1455, 1487, 1486, 1491, 1492
144,  347,  348,  350,  349,  333,  334,  336,  335, 1489, 1495, 1494, 1493, 1456, 1462, 1461,
     1460, 1492, 1491, 1496, 1497
145,  351,  352,  354,  353,  337,  338,  340,  339, 1501, 1500, 1499, 1498, 1468, 1467, 1466,
     1465, 1503, 1502, 1504, 1505
146,  353,  354,  356,  355,  339,  340,  342,  341, 1499, 1508, 1507, 1506, 1466, 1475, 1474,
     1473, 1505, 1504, 1509, 1510
147,  355,  356,  358,  357,  341,  342,  344,  343, 1507, 1513, 1512, 1511, 1474, 1480, 1479,
     1478, 1510, 1509, 1514, 1515
148,  357,  358,  360,  359,  343,  344,  346,  345, 1512, 1518, 1517, 1516, 1479, 1485, 1484,
     1483, 1515, 1514, 1519, 1520
149,  359,  360,  362,  361,  345,  346,  348,  347, 1517, 1523, 1522, 1521, 1484, 1490, 1489,
     1488, 1520, 1519, 1524, 1525
150,  361,  362,  364,  363,  347,  348,  350,  349, 1522, 1528, 1527, 1526, 1489, 1495, 1494,
     1493, 1525, 1524, 1529, 1530
151,  365,  366,  368,  367,  351,  352,  354,  353, 1534, 1533, 1532, 1531, 1501, 1500, 1499,
     1498, 1536, 1535, 1537, 1538
152,  367,  368,  370,  369,  353,  354,  356,  355, 1532, 1541, 1540, 1539, 1499, 1508, 1507,
     1506, 1538, 1537, 1542, 1543
153,  369,  370,  372,  371,  355,  356,  358,  357, 1540, 1546, 1545, 1544, 1507, 1513, 1512,
     1511, 1543, 1542, 1547, 1548
154,  371,  372,  374,  373,  357,  358,  360,  359, 1545, 1551, 1550, 1549, 1512, 1518, 1517,
     1516, 1548, 1547, 1552, 1553
155,  373,  374,  376,  375,  359,  360,  362,  361, 1550, 1556, 1555, 1554, 1517, 1523, 1522,
     1521, 1553, 1552, 1557, 1558
156,  375,  376,  378,  377,  361,  362,  364,  363, 1555, 1561, 1560, 1559, 1522, 1528, 1527,
     1526, 1558, 1557, 1562, 1563
157,  379,  380,  382,  381,  365,  366,  368,  367, 1567, 1566, 1565, 1564, 1534, 1533, 1532,
     1531, 1569, 1568, 1570, 1571
158,  381,  382,  384,  383,  367,  368,  370,  369, 1565, 1574, 1573, 1572, 1532, 1541, 1540,
     1539, 1571, 1570, 1575, 1576
159,  383,  384,  386,  385,  369,  370,  372,  371, 1573, 1579, 1578, 1577, 1540, 1546, 1545,
     1544, 1576, 1575, 1580, 1581
160,  385,  386,  388,  387,  371,  372,  374,  373, 1578, 1584, 1583, 1582, 1545, 1551, 1550,
     1549, 1581, 1580, 1585, 1586
161,  387,  388,  390,  389,  373,  374,  376,  375, 1583, 1589, 1588, 1587, 1550, 1556, 1555,
     1554, 1586, 1585, 1590, 1591
162,  389,  390,  392,  391,  375,  376,  378,  377, 1588, 1594, 1593, 1592, 1555, 1561, 1560,
     1559, 1591, 1590, 1595, 1596
163,  393,  394,  396,  395,  379,  380,  382,  381, 1600, 1599, 1598, 1597, 1567, 1566, 1565,
     1564, 1602, 1601, 1603, 1604
164,  395,  396,  398,  397,  381,  382,  384,  383, 1598, 1607, 1606, 1605, 1565, 1574, 1573,
     1572, 1604, 1603, 1608, 1609
165,  397,  398,  400,  399,  383,  384,  386,  385, 1606, 1612, 1611, 1610, 1573, 1579, 1578,
     1577, 1609, 1608, 1613, 1614
166,  399,  400,  402,  401,  385,  386,  388,  387, 1611, 1617, 1616, 1615, 1578, 1584, 1583,
     1582, 1614, 1613, 1618, 1619
167,  401,  402,  404,  403,  387,  388,  390,  389, 1616, 1622, 1621, 1620, 1583, 1589, 1588,
     1587, 1619, 1618, 1623, 1624
168,  403,  404,  406,  405,  389,  390,  392,  391, 1621, 1627, 1626, 1625, 1588, 1594, 1593,
     1592, 1624, 1623, 1628, 1629
169,  407,  408,  410,  409,  393,  394,  396,  395, 1633, 1632, 1631, 1630, 1600, 1599, 1598,
     1597, 1635, 1634, 1636, 1637
170,  409,  410,  412,  411,  395,  396,  398,  397, 1631, 1640, 1639, 1638, 1598, 1607, 1606,
     1605, 1637, 1636, 1641, 1642
171,  411,  412,  414,  413,  397,  398,  400,  399, 1639, 1645, 1644, 1643, 1606, 1612, 1611,
     1610, 1642, 1641, 1646, 1647
172,  413,  414,  416,  415,  399,  400,  402,  401, 1644, 1650, 1649, 1648, 1611, 1617, 1616,
     1615, 1647, 1646, 1651, 1652
173,  415,  416,  418,  417,  401,  402,  404,  403, 1649, 1655, 1654, 1653, 1616, 1622, 1621,
     1620, 1652, 1651, 1656, 1657
174,  417,  418,  420,  419,  403,  404,  406,  405, 1654, 1660, 1659, 1658, 1621, 1627, 1626,
     1625, 1657, 1656, 1661, 1662
175,  421,  422,  424,  423,  407,  408,  410,  409, 1666, 1665, 1664, 1663, 1633, 1632, 1631,
     1630, 1668, 1667, 1669, 1670
176,  423,  424,  426,  425,  409,  410,  412,  411, 1664, 1673, 1672, 1671, 1631, 1640, 1639,
     1638, 1670, 1669, 1674, 1675
177,  425,  426,  428,  427,  411,  412,  414,  413, 1672, 1678, 1677, 1676, 1639, 1645, 1644,
     1643, 1675, 1674, 1679, 1680
178,  427,  428,  430,  429,  413,  414,  416,  415, 1677, 1683, 1682, 1681, 1644, 1650, 1649,
     1648, 1680, 1679, 1684, 1685
179,  429,  430,  432,  431,  415,  416,  418,  417, 1682, 1688, 1687, 1686, 1649, 1655, 1654,
     1653, 1685, 1684, 1689, 1690
180,  431,  432,  434,  433,  417,  418,  420,  419, 1687, 1693, 1692, 1691, 1654, 1660, 1659,
     1658, 1690, 1689, 1694, 1695
181,  435,  436,  438,  437,  421,  422,  424,  423, 1699, 1698, 1697, 1696, 1666, 1665, 1664,
     1663, 1701, 1700, 1702, 1703
182,  437,  438,  440,  439,  423,  424,  426,  425, 1697, 1706, 1705, 1704, 1664, 1673, 1672,
     1671, 1703, 1702, 1707, 1708
183,  439,  440,  442,  441,  425,  426,  428,  427, 1705, 1711, 1710, 1709, 1672, 1678, 1677,
     1676, 1708, 1707, 1712, 1713
184,  441,  442,  444,  443,  427,  428,  430,  429, 1710, 1716, 1715, 1714, 1677, 1683, 1682,
     1681, 1713, 1712, 1717, 1718
185,  443,  444,  446,  445,  429,  430,  432,  431, 1715, 1721, 1720, 1719, 1682, 1688, 1687,
     1686, 1718, 1717, 1722, 1723
186,  445,  446,  448,  447,  431,  432,  434,  433, 1720, 1726, 1725, 1724, 1687, 1693, 1692,
     1691, 1723, 1722, 1727, 1728
187,  449,  450,  452,  451,  435,  436,  438,  437, 1732, 1731, 1730, 1729, 1699, 1698, 1697,
     1696, 1734, 1733, 1735, 1736
188,  451,  452,  454,  453,  437,  438,  440,  439, 1730, 1739, 1738, 1737, 1697, 1706, 1705,
     1704, 1736, 1735, 1740, 1741
189,  453,  454,  456,  455,  439,  440,  442,  441, 1738, 1744, 1743, 1742, 1705, 1711, 1710,
     1709, 1741, 1740, 1745, 1746
190,  455,  456,  458,  457,  441,  442,  444,  443, 1743, 1749, 1748, 1747, 1710, 1716, 1715,
     1714, 1746, 1745, 1750, 1751
191,  457,  458,  460,  459,  443,  444,  446,  445, 1748, 1754, 1753, 1752, 1715, 1721, 1720,
     1719, 1751, 1750, 1755, 1756
192,  459,  460,  462,  461,  445,  446,  448,  447, 1753, 1759, 1758, 1757, 1720, 1726, 1725,
     1724, 1756, 1755, 1760, 1761
193,  463,  464,  466,  465,  449,  450,  452,  451, 1765, 1764, 1763, 1762, 1732, 1731, 1730,
     1729, 1767, 1766, 1768, 1769
194,  465,  466,  468,  467,  451,  452,  454,  453, 1763, 1772, 1771, 1770, 1730, 1739, 1738,
     1737, 1769, 1768, 1773, 1774
195,  467,  468,  470,  469,  453,  454,  456,  455, 1771, 1777, 1776, 1775, 1738, 1744, 1743,
     1742, 1774, 1773, 1778, 1779
196,  469,  470,  472,  471,  455,  456,  458,  457, 1776, 1782, 1781, 1780, 1743, 1749, 1748,
     1747, 1779, 1778, 1783, 1784
197,  471,  472,  474,  473,  457,  458,  460,  459, 1781, 1787, 1786, 1785, 1748, 1754, 1753,
     1752, 1784, 1783, 1788, 1789
198,  473,  474,  476,  475,  459,  460,  462,  461, 1786, 1792, 1791, 1790, 1753, 1759, 1758,
     1757, 1789, 1788, 1793, 1794
199,  477,  478,  480,  479,  463,  464,  466,  465, 1798, 1797, 1796, 1795, 1765, 1764, 1763,
     1762, 1800, 1799, 1801, 1802
200,  479,  480,  482,  481,  465,  466,  468,  467, 1796, 1805, 1804, 1803, 1763, 1772, 1771,
     1770, 1802, 1801, 1806, 1807
201,  481,  482,  484,  483,  467,  468,  470,  469, 1804, 1810, 1809, 1808, 1771, 1777, 1776,
     1775, 1807, 1806, 1811, 1812
202,  483,  484,  486,  485,  469,  470,  472,  471, 1809, 1815, 1814, 1813, 1776, 1782, 1781,
     1780, 1812, 1811, 1816, 1817
203,  485,  486,  488,  487,  471,  472,  474,  473, 1814, 1820, 1819, 1818, 1781, 1787, 1786,
     1785, 1817, 1816, 1821, 1822
204,  487,  488,  490,  489,  473,  474,  476,  475, 1819, 1825, 1824, 1823, 1786, 1792, 1791,
     1790, 1822, 1821, 1826, 1827
205,  491,  492,  494,  493,  477,  478,  480,  479, 1831, 1830, 1829, 1828, 1798, 1797, 1796,
     1795, 1833, 1832, 1834, 1835
206,  493,  494,  496,  495,  479,  480,  482,  481, 1829, 1838, 1837, 1836, 1796, 1805, 1804,
     1803, 1835, 1834, 1839, 1840
207,  495,  496,  498,  497,  481,  482,  484,  483, 1837, 1843, 1842, 1841, 1804, 1810, 1809,
     1808, 1840, 1839, 1844, 1845
208,  497,  498,  500,  499,  483,  484,  486,  485, 1842, 1848, 1847, 1846, 1809, 1815, 1814,
     1813, 1845, 1844, 1849, 1850
209,  499,  500,  502,  501,  485,  486,  488,  487, 1847, 1853, 1852, 1851, 1814, 1820, 1819,
     1818, 1850, 1849, 1854, 1855
210,  501,  502,  504,  503,  487,  488,  490,  489, 1852, 1858, 1857, 1856, 1819, 1825, 1824,
     1823, 1855, 1854, 1859, 1860
211,  505,  506,  508,  507,  491,  492,  494,  493, 1864, 1863, 1862, 1861, 1831, 1830, 1829,
     1828, 1866, 1865, 1867, 1868
212,  507,  508,  510,  509,  493,  494,  496,  495, 1862, 1871, 1870, 1869, 1829, 1838, 1837,
     1836, 1868, 1867, 1872, 1873
213,  509,  510,  512,  511,  495,  496,  498,  497, 1870, 1876, 1875, 1874, 1837, 1843, 1842,
     1841, 1873, 1872, 1877, 1878
214,  511,  512,  514,  513,  497,  498,  500,  499, 1875, 1881, 1880, 1879, 1842, 1848, 1847,
     1846, 1878, 1877, 1882, 1883
215,  513,  514,  516,  515,  499,  500,  502,  501, 1880, 1886, 1885, 1884, 1847, 1853, 1852,
     1851, 1883, 1882, 1887, 1888
216,  515,  516,  518,  517,  501,  502,  504,  503, 1885, 1891, 1890, 1889, 1852, 1858, 1857,
     1856, 1888, 1887, 1892, 1893
217,  519,  520,  522,  521,  505,  506,  508,  507, 1897, 1896, 1895, 1894, 1864, 1863, 1862,
     1861, 1899, 1898, 1900, 1901
218,  521,  522,  524,  523,  507,  508,  510,  509, 1895, 1904, 1903, 1902, 1862, 1871, 1870,
     1869, 1901, 1900, 1905, 1906
219,  523,  524,  526,  525,  509,  510,  512,  511, 1903, 1909, 1908, 1907, 1870, 1876, 1875,
     1874, 1906, 1905, 1910, 1911
220,  525,  526,  528,  527,  511,  512,  514,  513, 1908, 1914, 1913, 1912, 1875, 1881, 1880,
     1879, 1911, 1910, 1915, 1916
221,  527,  528,  530,  529,  513,  514,  516,  515, 1913, 1919, 1918, 1917, 1880, 1886, 1885,
     1884, 1916, 1915, 1920, 1921
222,  529,  530,  532,  531,  515,  516,  518,  517, 1918, 1924, 1923, 1922, 1885, 1891, 1890,
     1889, 1921, 1920, 1925, 1926
223,  533,  534,  536,  535,  519,  520,  522,  521, 1930, 1929, 1928, 1927, 1897, 1896, 1895,
     1894, 1932, 1931, 1933, 1934
224,  535,  536,  538,  537,  521,  522,  524,  523, 1928, 1937, 1936, 1935, 1895, 1904, 1903,
     1902, 1934, 1933, 1938, 1939
225,  537,  538,  540,  539,  523,  524,  526,  525, 1936, 1942, 1941, 1940, 1903, 1909, 1908,
     1907, 1939, 1938, 1943, 1944
226,  539,  540,  542,  541,  525,  526,  528,  527, 1941, 1947, 1946, 1945, 1908, 1914, 1913,
     1912, 1944, 1943, 1948, 1949
227,  541,  542,  544,  543,  527,  528,  530,  529, 1946, 1952, 1951, 1950, 1913, 1919, 1918,
     1917, 1949, 1948, 1953, 1954
228,  543,  544,  546,  545,  529,  530,  532,  531, 1951, 1957, 1956, 1955, 1918, 1924, 1923,
     1922, 1954, 1953, 1958, 1959
229,  547,  548,  550,  549,  533,  534,  536,  535, 1963, 1962, 1961, 1960, 1930, 1929, 1928,
     1927, 1965, 1964, 1966, 1967
230,  549,  550,  552,  551,  535,  536,  538,  537, 1961, 1970, 1969, 1968, 1928, 1937, 1936,
     1935, 1967, 1966, 1971, 1972
231,  551,  552,  554,  553,  537,  538,  540,  539, 1969, 1975, 1974, 1973, 1936, 1942, 1941,
     1940, 1972, 1971, 1976, 1977
232,  553,  554,  556,  555,  539,  540,  542,  541, 1974, 1980, 1979, 1978, 1941, 1947, 1946,
     1945, 1977, 1976, 1981, 1982
233,  555,  556,  558,  557,  541,  542,  544,  543, 1979, 1985, 1984, 1983, 1946, 1952, 1951,
     1950, 1982, 1981, 1986, 1987
234,  557,  558,  560,  559,  543,  544,  546,  545, 1984, 1990, 1989, 1988, 1951, 1957, 1956,
     1955, 1987, 1986, 1991, 1992
235,  561,  562,  564,  563,  547,  548,  550,  549, 1996, 1995, 1994, 1993, 1963, 1962, 1961,
     1960, 1998, 1997, 1999, 2000
236,  563,  564,  566,  565,  549,  550,  552,  551, 1994, 2003, 2002, 2001, 1961, 1970, 1969,
     1968, 2000, 1999, 2004, 2005
237,  565,  566,  568,  567,  551,  552,  554,  553, 2002, 2008, 2007, 2006, 1969, 1975, 1974,
     1973, 2005, 2004, 2009, 2010
238,  567,  568,  570,  569,  553,  554,  556,  555, 2007, 2013, 2012, 2011, 1974, 1980, 1979,
     1978, 2010, 2009, 2014, 2015
239,  569,  570,  572,  571,  555,  556,  558,  557, 2012, 2018, 2017, 2016, 1979, 1985, 1984,
     1983, 2015, 2014, 2019, 2020
240,  571,  572,  574,  573,  557,  558,  560,  559, 2017, 2023, 2022, 2021, 1984, 1990, 1989,
     1988, 2020, 2019, 2024, 2025
241,  575,  576,  578,  577,  561,  562,  564,  563, 2029, 2028, 2027, 2026, 1996, 1995, 1994,
     1993, 2031, 2030, 2032, 2033
242,  577,  578,  580,  579,  563,  564,  566,  565, 2027, 2036, 2035, 2034, 1994, 2003, 2002,
     2001, 2033, 2032, 2037, 2038
243,  579,  580,  582,  581,  565,  566,  568,  567, 2035, 2041, 2040, 2039, 2002, 2008, 2007,
     2006, 2038, 2037, 2042, 2043
244,  581,  582,  584,  583,  567,  568,  570,  569, 2040, 2046, 2045, 2044, 2007, 2013, 2012,
     2011, 2043, 2042, 2047, 2048
245,  583,  584,  586,  585,  569,  570,  572,  571, 2045, 2051, 2050, 2049, 2012, 2018, 2017,
     2016, 2048, 2047, 2052, 2053
246,  585,  586,  588,  587,  571,  572,  574,  573, 2050, 2056, 2055, 2054, 2017, 2023, 2022,
     2021, 2053, 2052, 2057, 2058
247,  589,  590,  592,  591,  575,  576,  578,  577, 2062, 2061, 2060, 2059, 2029, 2028, 2027,
     2026, 2064, 2063, 2065, 2066
248,  591,  592,  594,  593,  577,  578,  580,  579, 2060, 2069, 2068, 2067, 2027, 2036, 2035,
     2034, 2066, 2065, 2070, 2071
249,  593,  594,  596,  595,  579,  580,  582,  581, 2068, 2074, 2073, 2072, 2035, 2041, 2040,
     2039, 2071, 2070, 2075, 2076
250,  595,  596,  598,  597,  581,  582,  584,  583, 2073, 2079, 2078, 2077, 2040, 2046, 2045,
     2044, 2076, 2075, 2080, 2081
251,  597,  598,  600,  599,  583,  584,  586,  585, 2078, 2084, 2083, 2082, 2045, 2051, 2050,
     2049, 2081, 2080, 2085, 2086
252,  599,  600,  602,  601,  585,  586,  588,  587, 2083, 2089, 2088, 2087, 2050, 2056, 2055,
     2054, 2086, 2085, 2090, 2091
253,  603,  604,  606,  605,  589,  590,  592,  591, 2095, 2094, 2093, 2092, 2062, 2061, 2060,
     2059, 2097, 2096, 2098, 2099
254,  605,  606,  608,  607,  591,  592,  594,  593, 2093, 2102, 2101, 2100, 2060, 2069, 2068,
     2067, 2099, 2098, 2103, 2104
255,  607,  608,  610,  609,  593,  594,  596,  595, 2101, 2107, 2106, 2105, 2068, 2074, 2073,
     2072, 2104, 2103, 2108, 2109
256,  609,  610,  612,  611,  595,  596,  598,  597, 2106, 2112, 2111, 2110, 2073, 2079, 2078,
     2077, 2109, 2108, 2113, 2114
257,  611,  612,  614,  613,  597,  598,  600,  599, 2111, 2117, 2116, 2115, 2078, 2084, 2083,
     2082, 2114, 2113, 2118, 2119
258,  613,  614,  616,  615,  599,  600,  602,  601, 2116, 2122, 2121, 2120, 2083, 2089, 2088,
     2087, 2119, 2118, 2123, 2124
259,  617,  618,  620,  619,  603,  604,  606,  605, 2128, 2127, 2126, 2125, 2095, 2094, 2093,
     2092, 2130, 2129, 2131, 2132
260,  619,  620,  622,  621,  605,  606,  608,  607, 2126, 2135, 2134, 2133, 2093, 2102, 2101,
     2100, 2132, 2131, 2136, 2137
261,  621,  622,  624,  623,  607,  608,  610,  609, 2134, 2140, 2139, 2138, 2101, 2107, 2106,
     2105, 2137, 2136, 2141, 2142
262,  623,  624,  626,  625,  609,  610,  612,  611, 2139, 2145, 2144, 2143, 2106, 2112, 2111,
     2110, 2142, 2141, 2146, 2147
263,  625,  626,  628,  627,  611,  612,  614,  613, 2144, 2150, 2149, 2148, 2111, 2117, 2116,
     2115, 2147, 2146, 2151, 2152
264,  627,  628,  630,  629,  613,  614,  616,  615, 2149, 2155, 2154, 2153, 2116, 2122, 2121,
     2120, 2152, 2151, 2156, 2157
265,  631,  632,  634,  633,  617,  618,  620,  619, 2161, 2160, 2159, 2158, 2128, 2127, 2126,
     2125, 2163, 2162, 2164, 2165
266,  633,  634,  636,  635,  619,  620,  622,  621, 2159, 2168, 2167, 2166, 2126, 2135, 2134,
     2133, 2165, 2164, 2169, 2170
267,  635,  636,  638,  637,  621,  622,  624,  623, 2167, 2173, 2172, 2171, 2134, 2140, 2139,
     2138, 2170, 2169, 2174, 2175
268,  637,  638,  640,  639,  623,  624,  626,  625, 2172, 2178, 2177, 2176, 2139, 2145, 2144,
     2143, 2175, 2174, 2179, 2180
269,  639,  640,  642,  641,  625,  626,  628,  627, 2177, 2183, 2182, 2181, 2144, 2150, 2149,
     2148, 2180, 2179, 2184, 2185
270,  641,  642,  644,  643,  627,  628,  630,  629, 2182, 2188, 2187, 2186, 2149, 2155, 2154,
     2153, 2185, 2184, 2189, 2190
271,  645,  646,  648,  647,  631,  632,  634,  633, 2194, 2193, 2192, 2191, 2161, 2160, 2159,
     2158, 2196, 2195, 2197, 2198
272,  647,  648,  650,  649,  633,  634,  636,  635, 2192, 2201, 2200, 2199, 2159, 2168, 2167,
     2166, 2198, 2197, 2202, 2203
273,  649,  650,  652,  651,  635,  636,  638,  637, 2200, 2206, 2205, 2204, 2167, 2173, 2172,
     2171, 2203, 2202, 2207, 2208
274,  651,  652,  654,  653,  637,  638,  640,  639, 2205, 2211, 2210, 2209, 2172, 2178, 2177,
     2176, 2208, 2207, 2212, 2213
275,  653,  654,  656,  655,  639,  640,  642,  641, 2210, 2216, 2215, 2214, 2177, 2183, 2182,
     2181, 2213, 2212, 2217, 2218
276,  655,  656,  658,  657,  641,  642,  644,  643, 2215, 2221, 2220, 2219, 2182, 2188, 2187,
     2186, 2218, 2217, 2222, 2223
277,  659,  660,  662,  661,  645,  646,  648,  647, 2227, 2226, 2225, 2224, 2194, 2193, 2192,
     2191, 2229, 2228, 2230, 2231
278,  661,  662,  664,  663,  647,  648,  650,  649, 2225, 2234, 2233, 2232, 2192, 2201, 2200,
     2199, 2231, 2230, 2235, 2236
279,  663,  664,  666,  665,  649,  650,  652,  651, 2233, 2239, 2238, 2237, 2200, 2206, 2205,
     2204, 2236, 2235, 2240, 2241
280,  665,  666,  668,  667,  651,  652,  654,  653, 2238, 2244, 2243, 2242, 2205, 2211, 2210,
     2209, 2241, 2240, 2245, 2246
281,  667,  668,  670,  669,  653,  654,  656,  655, 2243, 2249, 2248, 2247, 2210, 2216, 2215,
     2214, 2246, 2245, 2250, 2251
282,  669,  670,  672,  671,  655,  656,  658,  657, 2248, 2254, 2253, 2252, 2215, 2221, 2220,
     2219, 2251, 2250, 2255, 2256
283,  673,  674,  676,  675,  659,  660,  662,  661, 2260, 2259, 2258, 2257, 2227, 2226, 2225,
     2224, 2262, 2261, 2263, 2264
284,  675,  676,  678,  677,  661,  662,  664,  663, 2258, 2267, 2266, 2265, 2225, 2234, 2233,
     2232, 2264, 2263, 2268, 2269
285,  677,  678,  680,  679,  663,  664,  666,  665, 2266, 2272, 2271, 2270, 2233, 2239, 2238,
     2237, 2269, 2268, 2273, 2274
286,  679,  680,  682,  681,  665,  666,  668,  667, 2271, 2277, 2276, 2275, 2238, 2244, 2243,
     2242, 2274, 2273, 2278, 2279
287,  681,  682,  684,  683,  667,  668,  670,  669, 2276, 2282, 2281, 2280, 2243, 2249, 2248,
     2247, 2279, 2278, 2283, 2284
288,  683,  684,  686,  685,  669,  670,  672,  671, 2281, 2287, 2286, 2285, 2248, 2254, 2253,
     2252, 2284, 2283, 2288, 2289
*Nset, nset=_PickedSet2, internal, generate
    1,  2289,     1
*Elset, elset=_PickedSet2, internal, generate
   1,  288,    1
*Nset, nset=set
 343,
** Section: BBDINO30
*Solid Section, elset=_PickedSet2, material=BBIDNO30
,
*End Part
**  
**
** ASSEMBLY
**
*Assembly, name=Assembly
**  
*Instance, name=dogbone_sample_3D-1, part=dogbone_sample_3D
   30.682606,    36.984882,          -6.
   30.682606,    36.984882,          -6.,    31.682606,    36.984882,          -6.,          90.
*End Instance
**  
*Nset, nset=Bottom, instance=dogbone_sample_3D-1
 301,
*Nset, nset=Top, instance=dogbone_sample_3D-1
 385,
*Nset, nset=_PickedSet12, internal, instance=dogbone_sample_3D-1
   1,   2,   3,   4,   5,   6,   7,   8,   9,  10,  11,  12,  13,  14, 691, 692
 693, 694, 702, 703, 704, 710, 711, 712, 718, 719, 720, 726, 727, 728, 734, 735
 736,
*Elset, elset=_PickedSet12, internal, instance=dogbone_sample_3D-1, generate
 1,  6,  1
*Nset, nset=_PickedSet13, internal, instance=dogbone_sample_3D-1
  673,  674,  675,  676,  677,  678,  679,  680,  681,  682,  683,  684,  685,  686, 2257, 2258
 2259, 2260, 2265, 2266, 2267, 2270, 2271, 2272, 2275, 2276, 2277, 2280, 2281, 2282, 2285, 2286
 2287,
*Elset, elset=_PickedSet13, internal, instance=dogbone_sample_3D-1, generate
 283,  288,    1
*End Assembly
** 
** MATERIALS
** 
*Material, name=BBIDNO30
*Density
 1.06e-09,
*Hyperelastic, mooney-rivlin
 0.058239, 0.047687,       0.
** 
** BOUNDARY CONDITIONS
** 
** Name: Bottom_Fix Type: Symmetry/Antisymmetry/Encastre
*Boundary
_PickedSet12, ENCASTRE
** ----------------------------------------------------------------
** 
** STEP: Tension
** 
*Step, name=Tension, nlgeom=YES, inc=5000
*Static
0.01, 1., 1e-05, 0.05
** 
** BOUNDARY CONDITIONS
** 
** Name: Tension Type: Displacement/Rotation
*Boundary
_PickedSet13, 2, 2, 80.
** 
** OUTPUT REQUESTS
** 
*Restart, write, frequency=0
** 
** FIELD OUTPUT: F-Output-1
** 
*Output, field
*Node Output
RF, U
*Element Output, directions=YES
E, S
** 
** HISTORY OUTPUT: Bottom
** 
*Output, history
*Node Output, nset=Bottom
U2, 
** 
** HISTORY OUTPUT: Top
** 
*Node Output, nset=Top
U2, 
*End Step
